LAMMPS (10 Jun 2014)
Processor partition = 0
# ------------------------------- Initialization Section --------------------
units           real
atom_style      full
include         "system.in.init"
    bond_style      hybrid harmonic
    angle_style     hybrid cosine/squared
    #pair_style      hybrid lj/gromacs/coul/gromacs 9 12 0.000001 12
    pair_style      hybrid lj/gromacs/coul/gromacs 9 12 0.000001 12
    special_bonds   lj/coul 0 1 1
    neigh_modify    every 10
     dielectric      15
     pair_style      hybrid lj/gromacs/coul/gromacs 9 12 0.000001 12
     dielectric      15
     pair_style      hybrid lj/gromacs/coul/gromacs 9 12 0.000001 12

# ------------------------------- Atom Definition Section -------------------

# Read the coordinates generated by an earlier simulation

#read_data       "system.data"
#read_data       "system_after_min.data"
read_data       "system_after_npt.data"
  orthogonal box = (-7.02847 -7.02327 13.3246) to (104.528 104.451 136.675)
  2 by 2 by 2 MPI processor grid
  reading atoms ...
  12261 atoms
  reading velocities ...
  12261 velocities
  scanning bonds ...
  2 = max bonds/atom
  scanning angles ...
  2 = max angles/atom
  reading bonds ...
  4290 bonds
  reading angles ...
  3120 angles
  3 = max # of 1-2 neighbors
  3 = max # of special neighbors

# ------------------------------- Settings Section --------------------------

include         system.in.settings
    pair_coeff 2 2 lj/gromacs/coul/gromacs  0.8365200764818 4.7
    pair_coeff 2 3 lj/gromacs/coul/gromacs  1.0755258126195 4.7
    pair_coeff 2 4 lj/gromacs/coul/gromacs  0.9560229445507 4.7
    pair_coeff 2 5 lj/gromacs/coul/gromacs  0.4780114722753 6.2
    pair_coeff 3 3 lj/gromacs/coul/gromacs  1.1950286806883 4.7
    pair_coeff 3 4 lj/gromacs/coul/gromacs  0.9560229445507 4.7
    pair_coeff 3 5 lj/gromacs/coul/gromacs  0.4780114722753 6.2
    pair_coeff 4 4 lj/gromacs/coul/gromacs  0.9560229445507 4.7
    pair_coeff 4 5 lj/gromacs/coul/gromacs  0.6453154875717 4.7
    pair_coeff 5 5 lj/gromacs/coul/gromacs  0.8365200764818 4.7
    bond_coeff 1           harmonic              1.4937858508604 4.7
    bond_coeff 2        harmonic              1.4937858508604 3.7
    angle_coeff  1       cosine/squared        2.9875717017208 180
    angle_coeff  2       cosine/squared        2.9875717017208 120
    pair_coeff 1 1  lj/gromacs/coul/gromacs  1.1950286806883 4.7
    pair_coeff 6 6  lj/gromacs/coul/gromacs  1.1950286806883 4.7
pair_coeff 1 2 lj/gromacs/coul/gromacs 1.3384321223709 4.7
pair_coeff 1 3 lj/gromacs/coul/gromacs 1.3384321223709 4.7
pair_coeff 1 4 lj/gromacs/coul/gromacs 0.9560229445507 4.7
pair_coeff 1 5 lj/gromacs/coul/gromacs 0.4780114722753 4.7
pair_coeff 1 6 lj/gromacs/coul/gromacs 1.3384321223709 5.7
pair_coeff 2 6 lj/gromacs/coul/gromacs 1.3384321223709 4.7
pair_coeff 3 6 lj/gromacs/coul/gromacs 1.3384321223709 4.7
pair_coeff 4 6 lj/gromacs/coul/gromacs 0.9560229445507 4.7
pair_coeff 5 6 lj/gromacs/coul/gromacs 0.4780114722753 4.7

# ------------------------------- Run Section -------------------------------
# -- simulation protocol --
# Define variables
variable tlo world 200 210
variable thi world 500 510
#variable w world ZZZ # order of walkers from last output, replace in submission script with latest order from output

timestep        30.0    # (40.0 should be possible for lipid systems)
thermo          100
thermo_style    custom step temp pe etotal enthalpy press vol spcpu

# Continue the simulation at constant volume (NVT) at 323K.
dump     id2 all dcd 1000 dcd/restmd-${tlo}-${thi}.dcd
dump     id2 all dcd 1000 dcd/restmd-200-${thi}.dcd
dump     id2 all dcd 1000 dcd/restmd-200-500.dcd
dump_modify id2 unwrap yes
fix      fxnvt all nvt temp 323 323 3000.0



# STMD
fix     fxstmd all stmd 50000 1.5 ${tlo} ${thi} -80000 -20000 256 10000 500000 323 10000 1 1
fix     fxstmd all stmd 50000 1.5 200 ${thi} -80000 -20000 256 10000 500000 323 10000 1 1
fix     fxstmd all stmd 50000 1.5 200 500 -80000 -20000 256 10000 500000 323 10000 1 1
#       fixname all stmd RSTFRQ finit Tlo Thi Ulo Uhi binsize TSC1 TSC2 T0 PRTFRQ RE_flag OREST_flag

restart     100000 restart/${tlo}-${thi}.*.restart
restart     100000 restart/200-${thi}.*.restart
restart     100000 restart/200-500.*.restart

# Replica Exchange run
restmd  300000 500 323 fxstmd 0 12345 1
RESTMD: nReplica= 2  walker= 0
STMD Check initial values...
STMD STG= 2 N= 236  bin= 256
STMD Ynew(Y2)=  0.619195 0.619195 0.619195 0.619195 0.619195 0.619195 0.619195 0.619195 0.619195 0.619195 0.619195 0.619195 0.619195 0.619195 0.619195 0.619195 0.619195 0.619195 0.619195 0.619195 0.619195 0.619195 0.619195 0.619195 0.619195 0.619195 0.619195 0.619195 0.619195 0.619195 0.619195 0.619195 0.619195 0.619195 0.619195 0.619195 0.619195 0.619195 0.619195 0.619195 0.619195 0.619195 0.619195 0.650788 0.691031 0.688620 0.737270 0.734696 0.772921 0.776724 0.827632 0.817453 0.844232 0.862100 0.871020 0.899563 0.915210 0.917205 0.954649 0.965599 0.946775 0.943239 0.998429 1.046417 1.064949 1.076754 1.111833 1.121709 1.160896 1.170582 1.225094 1.220358 1.238310 1.273271 1.303502 1.321232 1.294150 1.338032 1.388039 1.377440 1.401908 1.384994 1.428876 1.438643 1.433743 1.527391 1.547988 1.547988 1.547988 1.547988 1.547988 1.547988 1.547988 1.547988 1.547988 1.547988 1.547988 1.547988 1.547988 1.547988 1.547988 1.547988 1.547988 1.547988 1.547988 1.547988 1.547988 1.547988 1.547988 1.547988 1.547988 1.547988 1.547988 1.547988 1.547988 1.547988 1.547988 1.547988 1.547988 1.547988 1.547988 1.547988 1.547988 1.547988 1.547988 1.547988 1.547988 1.547988 1.547988 1.547988 1.547988 1.547988 1.547988 1.547988 1.547988 1.547988 1.547988 1.547988 1.547988 1.547988 1.547988 1.547988 1.547988 1.547988 1.547988 1.547988 1.547988 1.547988 1.547988 1.547988 1.547988 1.547988 1.547988 1.547988 1.547988 1.547988 1.547988 1.547988 1.547988 1.547988 1.547988 1.547988 1.547988 1.547988 1.547988 1.547988 1.547988 1.547988 1.547988 1.547988 1.547988 1.547988 1.547988 1.547988 1.547988 1.547988 1.547988 1.547988 1.547988 1.547988 1.547988 1.547988 1.547988 1.547988 1.547988 1.547988 1.547988 1.547988 1.547988 1.547988 1.547988 1.547988 1.547988 1.547988 1.547988 1.547988 1.547988 1.547988 1.547988 1.547988 1.547988 1.547988 1.547988 1.547988 1.547988 1.547988 1.547988 1.547988 1.547988 1.547988 1.547988 1.547988 1.547988 1.547988 1.547988 1.547988 1.547988 1.547988 1.547988 1.547988 1.547988 1.547988 1.547988 1.547988 1.547988 1.547988 1.547988 1.547988 1.547988 1.547988 1.547988 1.547988 1.547988 1.547988 1.547988 1.547988
RESTMD STAGE 2
RESTMD STG2: istep= 0  TSC2= 500000
RESTMD STG2: f= 1.500000  df= 0.000792
RESTMD STG2: STG= 2
Memory usage per processor = 6.6755 Mbytes
Step Temp PotEng TotEng Enthalpy Press Volume S/CPU 
       0    322.41283   -64538.051   -52755.561   -52599.468     6.977405    1533959.3            0 
     100    333.32666   -65154.669   -52973.336   -54572.174   -71.468537    1533959.3    259.91233 
     200    328.14082   -65307.485   -53315.667   -55618.995   -102.95941    1533959.3    288.14296 
     300    334.50915   -65886.481   -53661.934    -58719.38   -226.06925    1533959.3    254.03012 
     400    330.82122   -66132.313    -54042.54   -60656.021   -295.62449    1533959.3      261.328 
     500    331.52734   -66487.329   -54371.752   -61573.442    -321.9176    1533959.3    261.15244 
     600    325.85189   -66630.573   -54722.403   -62919.927   -366.43163    1533959.3     290.9438 
     700    323.99318   -66865.087   -55024.843   -64563.956   -426.40103    1533959.3    281.51656 
     800    323.33727   -67120.171   -55303.897   -65808.202    -469.5454    1533959.3    286.03293 
     900    324.44321   -67403.034   -55546.344   -66657.418   -496.66813    1533959.3    249.06853 
    1000    321.18943    -67512.79   -55775.009   -67123.872   -507.29739    1533959.3    268.56299 
    1100     329.6476   -67942.836   -55895.953    -69296.99   -599.03013    1533959.3    219.66343 
    1200     324.1429   -68026.186   -56180.471   -69186.841   -581.38842    1533959.3    244.12456 
    1300    328.32162   -68372.517   -56374.092   -70993.282   -653.48194    1533959.3    275.32809 
    1400    321.42863   -68429.836   -56683.313   -72015.757   -685.36457    1533959.3    269.35964 
    1500    328.02463   -68800.882    -56813.31   -73043.895   -725.51176    1533959.3    272.00521 
    1600    328.22229   -69004.822   -57010.026   -74622.806   -787.29625    1533959.3     287.2325 
    1700    329.80179   -69243.274   -57190.756   -75912.323   -836.85933    1533959.3    295.35979 
    1800      330.957   -69503.159   -57408.425   -75823.247   -823.14777    1533959.3    283.12498 
    1900    326.24371   -69615.707   -57693.218   -77404.188   -881.08594    1533959.3    244.76264 
    2000    323.41904   -69720.729   -57901.467   -77619.169   -881.38686    1533959.3    241.49581 
    2100    316.37574   -69675.998   -58114.132   -77613.766   -871.63915    1533959.3    245.42044 
    2200    304.75934   -69331.189   -58193.841   -76435.383   -815.40211    1533959.3    292.76053 
    2300    311.76673   -69176.354   -57782.923   -75131.244   -775.47485    1533959.3    294.40427 
    2400    306.66997   -68679.798   -57472.626   -72405.678   -667.51164    1533959.3    289.16702 
    2500    312.61452   -68429.572   -57005.158   -71408.616   -643.83865    1533959.3    286.92009 
    2600     312.1884   -67966.641     -56557.8   -69029.021   -557.46712    1533959.3    285.17335 
    2700    309.68133   -67432.748   -56115.527   -65931.726   -438.78684    1533959.3    283.81102 
    2800     308.9722   -66906.471   -55615.165   -63945.036   -372.34761    1533959.3    277.13034 
    2900    312.00877   -66483.786    -55081.51   -61356.351   -280.48719    1533959.3    277.10196 
    3000     312.8515   -65980.422   -54547.348    -59235.83   -209.57647    1533959.3    265.96037 
    3100    314.09328   -65494.209   -54015.754   -56257.627   -100.21234    1533959.3     248.9946 
    3200     313.0395    -64920.87   -53480.925   -53971.449   -21.926564    1533959.3    221.79739 
    3300     316.1883    -64497.57   -52942.554   -51129.655    81.037099    1533959.3    277.20177 
    3400    318.97287   -64081.148    -52424.37   -49039.077    151.32358    1533959.3     283.3055 
    3500    317.19702   -63501.466   -51909.586   -47049.993    217.22517    1533959.3    293.71589 
    3600     314.4657   -62823.541   -51331.477   -42892.667    377.21717    1533959.3    288.47034 
    3700    314.14972   -62186.314   -50705.797   -39825.292    486.36167    1533959.3     290.5043 
    3800    314.25199   -61575.699   -50091.445   -36939.517    587.89491    1533959.3    283.49987 
    3900    317.70172   -61066.428   -49456.104   -34707.317    659.27496    1533959.3     281.5347 
    4000    317.16524   -60368.073   -48777.354   -31943.937    752.45853    1533959.3    259.88463 
    4100    319.72844   -59829.215   -48144.826   -28497.248    878.25226    1533959.3    257.03306 
    4200    321.10325   -59344.859   -47610.227   -26530.843    942.25444    1533959.3    290.93532 
    4300     322.2654   -58955.832    -47178.73   -25033.996    989.87586    1533959.3     294.8739 
    4400    323.80181   -58680.817   -46847.567   -23225.585    1055.9093    1533959.3    292.81203 
    4500    336.86134   -59418.216   -47107.709   -26223.953     933.5098    1533959.3    291.96229 
    4600    340.03454   -60358.958   -47932.487   -31345.698    741.43415    1533959.3    262.92406 
    4700      332.382   -60793.773   -48646.962   -33524.964    675.95759    1533959.3    285.70775 
    4800    329.83048   -61354.913   -49301.347   -36621.368    566.79865    1533959.3    283.85942 
    4900     328.3782   -61813.201   -49812.708   -38680.567    497.60983    1533959.3    285.18557 
    5000    327.44129   -62274.156   -50307.902   -41264.358      404.249    1533959.3    282.75432 
    5100    328.40385   -62786.258   -50784.828   -44264.184    291.47461    1533959.3    214.10937 
    5200    323.27099   -63029.208   -51215.356   -45543.547    253.53147    1533959.3    299.63616 
    5300    325.91888   -63569.149   -51658.531   -47552.974    183.51956    1533959.3    297.10089 
    5400    329.98869    -64151.48   -52092.132   -50536.491    69.537578    1533959.3    287.94376 
    5500    328.37907   -64505.224   -52504.699   -52566.186   -2.7484845    1533959.3    286.95562 
    5600    327.79916   -64892.858   -52913.526   -54736.501   -81.487493    1533959.3    228.11098 
    5700    324.10269   -65147.051   -53302.805   -55906.923   -116.40481    1533959.3    292.88851 
    5800    326.17195   -65566.499   -53646.633   -58010.565   -195.06898    1533959.3    285.55914 
    5900    328.67816   -65976.936    -53965.48   -59514.003   -248.02054    1533959.3    279.97808 
    6000     327.2149   -66241.351   -54283.371   -60906.486   -296.05513    1533959.3    277.82404 
    6100    321.42406   -66344.188   -54597.832   -61679.002   -316.53033    1533959.3     268.6922 
    6200    328.39048   -66809.806   -54808.864     -63666.2   -395.92543    1533959.3    287.67221 
    6300    323.80146   -66937.915   -55104.678   -64560.104   -422.66024    1533959.3    268.11303 
    6400    320.67806   -67049.602   -55330.509    -65292.09   -445.28549    1533959.3    262.02625 
    6500    303.05943   -66577.311   -55502.086   -63839.654   -372.69166    1533959.3    287.90897 
    6600    303.56264   -66137.195    -55043.58   -61063.565   -269.09501    1533959.3    284.22259 
    6700    305.48489   -65648.563     -54484.7   -59268.616   -213.84239    1533959.3    289.26394 
    6800    306.64821   -65086.108   -53879.732   -55630.671   -78.267463    1533959.3    294.45284 
    6900    312.29465   -64685.401   -53272.677   -52806.423    20.841654    1533959.3    280.40259 
    7000    314.21977   -64135.961   -52652.884   -50205.855    109.38289    1533959.3    279.82361 
    7100    312.08513   -63410.758   -52005.691   -46585.578    242.28058    1533959.3    289.52871 
    7200    314.32405   -62886.313   -51399.425   -44077.835    327.27715    1533959.3    294.43982 
    7300     315.5379   -62269.284   -50738.036   -41141.569    428.96478    1533959.3    295.37727 
    7400      313.995   -61449.967   -49975.104   -37199.456    571.07512    1533959.3    275.23721 
    7500    313.46118   -60648.332   -49192.978   -33158.414    716.74954    1533959.3     278.2749 
    7600    312.37396   -59858.348   -48442.725   -30001.897    824.31024    1533959.3     286.0821 
    7700     324.0929   -59784.977   -47941.089   -29496.576    824.47498    1533959.3     286.9513 
    7800    325.97783   -59363.638   -47450.866   -27673.899    884.03603    1533959.3    286.25001 
    7900     320.6283    -58550.94   -46833.665   -23758.514    1031.4658    1533959.3    282.85824 
    8000    336.35437   -58979.683   -46687.703   -25957.593     926.6418    1533959.3    278.85379 
    8100    340.97858   -59791.438   -47330.467   -28667.379    834.24533    1533959.3    286.47054 
    8200    332.30131   -60244.294   -48100.432   -31795.826     728.8205    1533959.3      296.219 
    8300    325.15695   -60671.726   -48788.953   -33991.292    661.45964    1533959.3    292.57041 
    8400    329.57022   -61520.382   -49476.327   -38566.966    487.65153    1533959.3     290.4528 
    8500    321.52949   -61745.191   -49994.982   -39654.522    462.22152    1533959.3    290.46044 
    8600    323.95129   -62320.675   -50481.962   -42890.802    339.32699    1533959.3    272.73072 
    8700     309.3121   -62065.806   -50762.079   -41925.799     394.9842    1533959.3     287.2565 
    8800    305.60719   -61433.211   -50264.878     -39002.1     503.4494    1533959.3    286.99273 
    8900    312.16164   -60898.827   -49490.964    -36440.35    583.36614    1533959.3    281.88379 
    9000    313.70558   -60132.004   -48667.718   -32230.597    734.74395    1533959.3    278.31977 
    9100    318.46922   -59630.796   -47992.424   -29582.688    822.92041    1533959.3     215.8191 
    9200    315.20981   -58772.053   -47252.795   -24974.742    995.83528    1533959.3    291.55963 
    9300    323.51373    -58571.56   -46748.837   -24448.747    996.82033    1533959.3    291.29984 
    9400    322.95606   -58245.194   -46442.852   -22744.732    1059.3127    1533959.3    290.81671 
    9500    328.62895   -58897.152   -46887.495   -25309.447    964.54484    1533959.3    287.33089 
    9600    329.95098   -59815.358   -47757.388   -30637.225    765.27612    1533959.3    232.19415 
    9700    334.92237   -60813.576   -48573.928   -35762.951    572.65431    1533959.3    286.42457 
    9800    326.89302   -61071.423   -49125.206   -37389.432    524.59243    1533959.3    284.85089 
    9900    326.60055   -61467.432   -49531.902   -39532.777    446.96373    1533959.3    284.14172 
   10000    321.91644   -61626.659   -49862.309   -40144.817    434.37464    1533959.3    282.67428 
   10100     329.9168   -62021.817   -49965.096   -41683.569    370.18661    1533959.3     270.0944 
   10200    335.38622   -62416.742   -50160.142   -43550.674    295.44509    1533959.3    300.79525 
   10300    331.56316   -62775.107   -50658.221   -45228.161     242.7252    1533959.3    289.19713 
   10400    329.61568   -63232.443   -51186.727   -47957.034    144.36818    1533959.3    294.78685 
   10500    326.38024   -63529.007   -51601.529   -48922.706    119.74417    1533959.3    283.54395 
   10600    323.37707    -63755.49   -51937.762   -50458.437     66.12624    1533959.3    286.16486 
   10700    327.41749   -64047.991   -52082.607   -51498.666    26.102335    1533959.3    286.04113 
   10800    330.16558   -64331.122   -52265.309   -53556.634   -57.722572    1533959.3    283.45887 
   10900    328.26517    -64508.28   -52511.918    -53469.81   -42.818042    1533959.3    288.87784 
   11000    326.36555   -64810.247   -52883.305    -54765.38   -84.129263    1533959.3    287.64321 
   11100    316.64594   -64775.916   -53204.176   -54864.266    -74.20652    1533959.3    285.62603 
   11200    327.84556   -65103.508    -53122.48   -57074.463   -176.65474    1533959.3    258.22591 
   11300    328.83515   -65323.602   -53306.409   -57384.701   -182.30078    1533959.3     290.8151 
   11400    326.12497   -65585.471   -53667.322   -58874.736   -232.77287    1533959.3    271.77679 
   11500    323.65372   -65822.628    -53994.79   -59749.931   -257.25644    1533959.3    294.91661 
   11600    311.06412   -65655.012   -54287.257   -60284.533   -268.07994    1533959.3    281.09941 
   11700    325.48303   -66262.076   -54367.386   -62131.329   -347.05046    1533959.3     288.1105 
   11800    327.37793   -66540.562   -54576.624   -62723.294   -364.15846    1533959.3     287.9487 
   11900    325.29926   -66724.741   -54836.767   -64197.792   -418.44049    1533959.3    266.11392 
   12000    333.58288   -67204.963   -55014.266   -66230.879   -501.38576    1533959.3    260.51027 
   12100    330.88479   -67444.528   -55352.433   -67050.908   -522.92517    1533959.3      277.994 
   12200     327.2726   -67617.185   -55657.096   -68651.889   -580.87094    1533959.3    293.31536 
   12300    328.73913   -67863.354   -55849.671   -69805.999   -623.85181    1533959.3    287.11944 
   12400    323.50111   -67952.873   -56130.612   -70063.159   -622.78879    1533959.3    285.79438 
   12500    321.07712   -68032.575   -56298.898   -70604.335   -639.45705    1533959.3    282.42132 
   12600    322.41466   -68158.905   -56376.347   -71268.944   -665.70328    1533959.3     283.5221 
   12700    324.29091   -68417.603   -56566.479   -72382.461   -706.97888    1533959.3    299.92477 
   12800    324.84248   -68611.094   -56739.813   -72748.748   -715.60393    1533959.3    295.11934 
   12900     329.7893   -68893.851    -56841.79   -74247.839   -778.05531    1533959.3    294.49439 
   13000    325.85656   -68988.485   -57080.144   -74532.503    -780.1254    1533959.3    300.65338 
   13100    323.75193   -69099.288   -57267.861   -75861.349   -831.13416    1533959.3    263.54557 
   13200    318.62526   -69138.116   -57494.041   -75140.102    -788.7839    1533959.3    285.37029 
   13300    327.92862   -69521.844   -57537.781     -77133.4   -875.92972    1533959.3    290.18634 
   13400    322.85023   -69556.427   -57757.952   -77957.734   -902.93596    1533959.3    290.10405 
   13500    321.33197   -69554.256   -57811.265   -77178.762    -865.7326    1533959.3    293.97672 
   13600    302.32894   -68850.291   -57801.761   -74935.528   -765.88425    1533959.3    297.91969 
   13700    302.16587   -68481.294   -57438.723   -72742.414   -684.07931    1533959.3    299.89947 
   13800    304.46715   -68100.252   -56973.582   -70718.283   -614.39203    1533959.3    301.14122 
   13900    307.46429   -67695.269   -56459.069   -68759.297   -549.82369    1533959.3    292.52185 
   14000    308.96857   -67210.141   -55918.968   -66674.347   -480.76851    1533959.3    289.16104 
   14100    317.90506    -66995.32   -55377.565   -64606.602   -412.54057    1533959.3    256.21049 
   14200     315.4921   -66451.933   -54922.359   -61653.661   -300.89112    1533959.3    298.21115 
   14300    316.35818    -65962.37   -54401.146    -60017.28   -251.04281    1533959.3     294.2215 
   14400    313.84393   -65265.891   -53796.548   -55711.168   -85.584053    1533959.3    287.94613 
   14500    310.75081   -64536.395    -53180.09   -52130.107    46.934505    1533959.3    289.52531 
   14600    314.97709   -64054.291   -52543.538   -50094.358    109.47905    1533959.3    267.61147 
   14700    307.50273   -63068.457   -51830.852   -45103.077    300.73343    1533959.3    278.48331 
   14800    318.06847   -62830.406   -51206.679   -43555.193    342.02361    1533959.3    271.51641 
   14900    320.02338   -62311.138    -50615.97   -40593.588     448.0033    1533959.3    281.45309 
   15000    319.10696   -61776.528    -50114.85   -38003.647     541.3742    1533959.3    286.00602 
   15100    312.82616   -60884.709   -49452.561   -34529.814    667.05101    1533959.3    230.12991 
   15200    316.70075   -60249.439   -48675.695   -30977.287    791.12386    1533959.3    286.59876 
   15300    320.37732   -59721.993   -48013.891   -28591.092    868.20459    1533959.3    283.25633 
   15400    322.97245   -59240.015   -47437.074   -26459.799    937.69012    1533959.3    281.57912 
   15500    322.41874   -58708.186   -46925.479   -23917.469    1028.4646    1533959.3      282.596 
   15600    343.89948   -59592.444    -47024.73   -27492.518    873.09542    1533959.3    233.74865 
   15700    332.79505    -59779.39   -47617.485   -28224.691    866.86335    1533959.3    285.06927 
   15800    333.41458   -60599.691   -48415.145   -33373.439    672.36853    1533959.3    287.36455 
   15900    325.73629   -60931.303   -49027.358   -35238.519    616.36497    1533959.3    285.05377 
   16000    326.20335    -61505.88   -49584.866   -38167.839    510.34434    1533959.3    284.38254 
   16100    325.56582   -61979.121   -50081.405   -40931.292    409.01267    1533959.3     179.7194 
   16200    331.62085   -62790.849   -50671.854   -44709.557    266.51636    1533959.3    289.17121 
   16300    322.86746   -62973.669   -51174.564   -45910.299    235.31414    1533959.3    287.79124 
   16400    323.58067   -63470.651   -51645.482   -48196.283    154.18019    1533959.3    286.43943 
   16500    325.41104   -63920.297   -52028.238   -50772.638    56.125683    1533959.3    283.85693 
   16600     321.3694   -64096.818    -52352.46   -51541.392    36.254952    1533959.3    242.78156 
   16700    322.32059   -64407.692   -52628.573   -53099.017   -21.028963    1533959.3    285.88827 
   16800    323.92828   -64746.717   -52908.845   -55369.734   -110.00244    1533959.3      292.208 
   16900    322.78954   -64989.081   -53192.824   -56637.368   -153.97208    1533959.3     289.9366 
   17000    322.08643   -65248.922    -53478.36   -57072.813   -160.67309    1533959.3    284.07879 
   17100    320.53295   -65489.168   -53775.377   -58675.254   -219.02589    1533959.3    269.91137 
   17200    319.27229   -65737.902   -54070.182   -59949.709   -262.81653    1533959.3    297.11226 
   17300    327.63736   -66230.947   -54257.528   -61668.023   -331.25126    1533959.3    293.56602 
   17400    328.32247   -66516.032   -54517.576   -63219.367    -388.9725    1533959.3    294.23615 
   17500    325.13882   -66678.038   -54795.927   -64002.256   -411.52548    1533959.3    294.97302 
   17600     325.2956   -66967.482   -55079.642   -64708.387   -430.40761    1533959.3    247.41522 
   17700    327.34625   -67262.986   -55300.205   -66077.599   -481.75256    1533959.3    304.24637 
   17800    324.98894   -67457.982   -55581.348   -67506.143   -533.04171    1533959.3    299.88596 
   17900    324.69014   -67658.834    -55793.12    -68844.34    -583.3932    1533959.3    292.11317 
   18000    326.64054   -67915.919   -55978.928   -69924.666   -623.37844    1533959.3    284.41821 
   18100    325.91469   -68090.292   -56179.827   -70539.621   -641.88683    1533959.3    251.39468 
   18200    323.32075   -68177.444   -56361.774   -70566.256   -634.94437    1533959.3    300.48795 
   18300    323.65646   -68391.566   -56563.627    -71485.24   -667.00033    1533959.3    303.62001 
   18400    326.44093   -68632.828   -56703.132    -72474.61   -704.98953    1533959.3    301.13668 
   18500    330.06553   -68889.484   -56827.328   -73484.094   -744.56214    1533959.3    295.10543 
   18600    325.64071   -68993.363   -57092.911    -73867.31   -749.82041    1533959.3    302.22161 
   18700    329.86199   -69291.823   -57237.105   -75112.185   -799.02113    1533959.3    302.65624 
   18800    329.77215   -69522.926   -57471.491   -76571.127   -853.75913    1533959.3    289.04745 
   18900    326.04168   -69638.109   -57723.003   -77008.766   -862.07908    1533959.3     290.2512 
   19000    321.47084    -69669.58   -57921.515   -77596.406    -879.4732    1533959.3    278.63298 
   19100    321.30013     -69727.2   -57985.373   -77651.583   -879.08515    1533959.3    215.27235 
   19200     321.7653   -69729.562   -57970.736   -77310.719   -864.50271    1533959.3    293.78234 
   19300    308.24459   -69162.276    -57897.56   -75998.226   -809.10491    1533959.3    299.41563 
   19400     304.4935   -68722.201   -57594.568   -73747.742   -722.05145    1533959.3    297.36229 
   19500      303.064   -68270.546   -57195.153   -71449.628   -637.17906    1533959.3    297.82301 
   19600    306.87273   -67911.099   -56696.518    -69388.73   -567.34547    1533959.3    197.13243 
   19700    305.04736   -67322.122   -56174.248   -66625.293   -467.16467    1533959.3    281.02445 
   19800    312.57932   -67018.824   -55595.697   -64790.172   -410.99561    1533959.3    283.21234 
   19900    314.13988   -66559.433   -55079.276   -61735.358   -297.52877    1533959.3    293.00513 
   20000    311.64939   -65936.425   -54547.282   -59147.388   -205.62601    1533959.3    287.39665 
   20100    312.40075   -65358.853   -53942.252   -56155.797   -98.946104    1533959.3    213.79494 
   20200     311.8586    -64719.95   -53323.161   -53467.835   -6.4669735    1533959.3    283.76206 
   20300    312.88009   -64111.448   -52677.329   -50126.631    114.01693    1533959.3    282.73335 
   20400    312.19479   -63398.488   -51989.414   -45732.679     279.6778    1533959.3    280.41384 
   20500    317.50815   -62925.014   -51321.763   -43905.807    331.49536    1533959.3    291.85401 
   20600    320.03965   -62373.192   -50677.429   -41106.352    427.82985    1533959.3    287.74484 
   20700    318.08532   -61707.318   -50082.975   -37686.322    554.13391    1533959.3    282.58648 
   20800    314.85284   -60844.897   -49338.684   -34160.489    678.46962    1533959.3    284.93681 
   20900    317.02923    -60137.03   -48551.282   -29882.988    834.47803    1533959.3    267.61147 
   21000    319.51035   -59533.493   -47857.073   -26873.206     937.9848    1533959.3    277.50953 
   21100    314.52374   -58539.295   -47045.109   -22752.829    1085.8718    1533959.3    281.36209 
   21200      334.814   -59096.271   -46860.583   -24955.357     979.1698    1533959.3     278.9237 
   21300    337.67963    -59708.79   -47368.379   -28631.822    837.52938    1533959.3     267.9219 
   21400    329.67467   -60216.745   -48168.873   -31522.711    744.08811    1533959.3    289.53531 
   21500    323.65258   -60683.367    -48855.57   -33813.898    672.36701    1533959.3    291.76042 
   21600    324.28151    -61268.28   -49417.499   -36841.855    562.13486    1533959.3    280.29278 
   21700    327.88422   -61954.282   -49971.842   -40630.753    417.54933    1533959.3    288.30973 
   21800    328.27405   -62475.891   -50479.204   -42657.988     349.6106    1533959.3    294.52314 
   21900    324.46954   -62806.102    -50948.45   -43815.587      318.841    1533959.3     285.9561 
   22000    330.26483   -63456.587   -51387.147   -47701.763    164.73771    1533959.3    270.31773 
   22100    328.91466     -63807.2   -51787.102   -49530.921    100.85192    1533959.3    275.56107 
   22200    326.32816   -64098.209   -52172.634   -51163.954    45.088277    1533959.3    297.47217 
   22300    325.77256    -64437.91    -52532.64   -52808.525   -12.332132    1533959.3    289.15606 
   22400    323.19893   -64716.948    -52905.73    -53676.66   -34.460827    1533959.3    293.28521 
   22500    322.05304   -65036.314   -53266.972   -56181.188   -130.26628    1533959.3    289.69549 
   22600    329.35199   -65583.364   -53547.284   -58404.674   -217.12669    1533959.3    231.57214 
   22700     330.9223   -65984.405   -53890.939   -60227.658   -283.25315    1533959.3    283.74171 
   22800    326.41311   -66195.363   -54266.683   -61702.052   -332.36312    1533959.3    282.68952 
   22900    316.77931   -66203.115   -54626.501   -62247.936   -340.68033    1533959.3    279.68366 
   23000    324.58267   -66744.984   -54883.197   -63916.886   -403.80845    1533959.3    280.26431 
   23100    326.73142   -67110.191   -55169.879   -65829.875    -476.5048    1533959.3    266.21087 
   23200    329.00695   -67457.522   -55434.051   -67887.219   -556.66013    1533959.3    287.97282 
   23300    327.23881   -67682.041   -55723.187   -68681.418   -579.23662    1533959.3    290.67825 
   23400    321.74297   -67801.377   -56043.366   -69489.837   -601.06102    1533959.3    286.96956 
   23500    330.08735   -68296.055   -56233.101   -71232.162   -670.46228    1533959.3    295.74153 
   23600    326.07609   -68438.386   -56522.023   -71981.483   -691.04227    1533959.3    304.16496 
   23700    334.17622    -68893.27    -56680.89   -74561.406   -799.26412    1533959.3    296.94125 
   23800    329.92087   -69093.631   -57036.762   -75237.057   -813.55836    1533959.3      300.258 
   23900    326.79211   -69293.704   -57351.174   -76585.381   -859.77446    1533959.3    301.83839 
   24000    323.42044   -69450.552   -57631.239   -77073.581   -869.07819    1533959.3    294.60982 
   24100     320.6133    -69545.65   -57828.923    -77482.73   -878.53073    1533959.3     208.1807 
   24200    321.74742   -69582.968   -57824.795   -77829.916   -894.23459    1533959.3    291.55031 
   24300     309.0892    -69004.39   -57708.808   -75552.499   -797.61804    1533959.3    294.10122 
   24400    313.38469   -68768.878   -57316.319   -73631.712    -729.3027    1533959.3    272.62879 
   24500    309.07713   -68297.655   -57002.515   -71672.482    -655.7517    1533959.3    246.69793 
   24600    309.92988   -67937.214    -56610.91   -69253.868    -565.1438    1533959.3    250.92289 
   24700    314.87424   -67673.899   -56166.904   -67765.329   -518.45284    1533959.3    305.46461 
   24800    312.16625   -67195.679   -55787.648   -65899.832   -452.01749    1533959.3    296.48513 
   24900    316.01762   -66905.218   -55356.439   -63652.245   -370.82486    1533959.3    255.62446 
   25000    314.77422   -66420.089   -54916.749   -62089.831    -320.6388    1533959.3     233.4224 
   25100    316.37099   -66009.124   -54447.431   -58666.878   -188.61044    1533959.3    219.42325 
   25200    313.73381   -65442.735   -53977.417   -56749.213   -123.90006    1533959.3    268.74281 
   25300    317.99448   -65119.331   -53498.308   -54426.924   -41.509388    1533959.3    282.49303 
   25400    314.06041   -64404.406   -52927.152   -52024.236    40.360622    1533959.3    276.47308 
   25500    310.09911   -63624.654   -52292.165   -47614.338    209.10021    1533959.3    281.60993 
   25600    318.36613   -63297.116   -51662.512   -45867.857    259.02269    1533959.3    272.65201 
   25700    309.67012   -62190.227   -50873.415   -41131.789    435.45344    1533959.3    273.27625 
   25800    311.47042   -61518.308   -50135.705   -36820.612    595.18843    1533959.3    282.93189 
   25900    313.70462   -60842.827   -49378.576   -34477.904    666.06426    1533959.3    281.81637 
   26000    315.66982   -60162.158    -48626.09   -30087.754    828.66883    1533959.3    282.06843 
   26100    316.12148   -59396.746   -47844.172   -27639.796    903.14133    1533959.3    248.60777 
   26200     319.8405   -58873.125    -47184.64   -24957.259    993.57022    1533959.3    259.20302 
   26300    325.82958   -58700.069   -46792.714   -23183.554    1055.3361    1533959.3    276.37289 
   26400    334.94908   -59102.374   -46861.749   -25800.619    941.43847    1533959.3    292.72702 
   26500    336.90129   -59936.023   -47624.056   -29578.728    806.63126    1533959.3    291.39738 
   26600    327.37734   -60280.492   -48316.575   -32463.244    708.64835    1533959.3    293.13578 
   26700    319.80188   -60570.432   -48883.359    -33849.68    672.00969    1533959.3    288.46777 
   26800     326.0744   -61360.085   -49443.784   -37563.044    531.07242    1533959.3    290.43772 
   26900    323.40766   -61590.721   -49771.875   -38746.157    492.85274    1533959.3    284.22567 
   27000    323.86571   -61906.144   -50070.559    -40751.69    416.55607    1533959.3    279.90278 
   27100    326.91915   -62364.021   -50416.849   -42603.171    349.27361    1533959.3    259.03381 
   27200    326.57416   -62761.089   -50826.524   -44103.678    300.51312    1533959.3    287.09724 
   27300    319.14148   -62783.531   -51120.592   -45442.965    253.79152    1533959.3    282.15989 
   27400    324.86754   -63301.782   -51429.585   -47119.322    192.66998    1533959.3    297.48799 
   27500    327.53074   -63761.896   -51792.373   -49468.761    103.86609    1533959.3    292.29679 
   27600    324.22604   -64012.378   -52163.625   -51027.652    50.778296    1533959.3    292.09628 
   27700    325.23978   -64374.517   -52488.717   -52644.523   -6.9645735    1533959.3    293.13127 
   27800    324.76805    -64683.66   -52815.099   -54247.938   -64.048288    1533959.3    294.13587 
   27900    328.09625   -65085.456   -53095.267    -56260.57   -141.48993    1533959.3     291.4397 
   28000    327.53947   -65407.191   -53437.349   -57209.607   -168.62099    1533959.3    267.59371 
   28100    331.85932   -65857.517   -53729.807   -59938.792   -277.54338    1533959.3    287.26713 
   28200    325.42926   -65958.603   -54065.878   -61002.566   -310.07192    1533959.3    293.76341 
   28300    311.56136   -65748.169   -54362.243   -59452.778   -227.54834    1533959.3    301.82384 
   28400    330.56701   -66502.531   -54422.049   -63549.651    -408.0064    1533959.3    284.04897 
   28500    329.70172   -66791.386   -54742.525   -64201.703   -422.82792    1533959.3    290.94985 
   28600     327.1741   -66975.734   -55019.244   -65196.112   -454.90887    1533959.3     216.6316 
   28700    326.57214   -67253.047   -55318.556   -66011.743   -477.98846    1533959.3    288.23523 
   28800    329.74585   -67586.552   -55536.079    -68103.41   -561.76327    1533959.3    290.00295 
   28900    330.45177    -67877.05   -55800.779   -69581.902   -616.02014    1533959.3    294.26402 
   29000    329.68048   -68102.064   -56053.979   -70698.365    -654.6082    1533959.3    292.30616 
   29100     328.6527   -68318.909   -56308.384   -71299.365    -670.1011    1533959.3    274.73439 
   29200      325.248    -68479.08   -56592.979   -72044.003   -690.66512    1533959.3    294.22914 
   29300    329.44991   -68834.053   -56794.395   -74086.066   -772.94259    1533959.3    302.76701 
   29400    326.73999   -69020.074   -57079.449   -74847.033   -794.21606    1533959.3    298.27074 
   29500    329.76446   -69326.062   -57274.908   -76144.932    -843.4954    1533959.3    303.22403 
   29600    324.63787   -69415.479   -57551.675   -76747.981   -858.08028    1533959.3    261.12935 
   29700    325.91122   -69619.469    -57709.13   -77549.333   -886.86267    1533959.3     300.6036 
   29800     322.0197   -69650.123       -57882   -77440.961   -874.29109    1533959.3    295.29533 
   29900    304.72252    -69256.54   -58120.538   -76093.123   -803.37964    1533959.3    293.37219 
   30000    307.02492    -69022.59   -57802.447    -75032.21    -770.1753    1533959.3    289.77355 
   30100    309.70334   -68708.756   -57390.731   -73167.346   -705.21913    1533959.3    226.95038 
   30200    311.89891   -68374.571    -56976.31   -71605.572   -653.93215    1533959.3    267.84662 
   30300    318.05523   -68153.321   -56530.078   -70388.632   -619.48129    1533959.3    266.52026 
   30400     315.5065   -67681.692   -56151.591   -67129.408   -490.71152    1533959.3     286.6487 
   30500    316.11667   -67290.017   -55737.618   -65525.487    -437.5205    1533959.3    294.54299 
   30600    315.92603   -66902.461   -55357.029   -63855.931   -379.90331    1533959.3    254.57995 
   30700    317.26794   -66527.921   -54933.449   -61981.565   -315.05278    1533959.3     229.0091 
   30800    319.87385   -66252.898   -54563.194   -60104.963   -247.71862    1533959.3    245.10034 
   30900    310.14141   -65608.719   -54274.685   -57303.653   -135.39575    1533959.3     292.3789 
   31000    313.28304   -65191.564   -53742.719   -55162.599   -63.469026    1533959.3    290.02742 
   31100    316.03708   -64733.556   -53184.066   -52807.842    16.817329    1533959.3    286.09107 
   31200    321.58445   -64442.452   -52690.235   -51402.497    57.562258    1533959.3    281.41985 
   31300    322.04435   -64033.045   -52264.021   -48915.697    149.67101    1533959.3     294.3427 
   31400    322.54362   -63709.147   -51921.877   -47417.096    201.36499    1533959.3    266.68159 
   31500    318.50627   -63545.223   -51905.497   -46980.409    220.15282    1533959.3    273.33235 
   31600     334.8269   -64429.724   -52193.565   -50944.959    55.813005    1533959.3    232.00085 
   31700    327.64815   -64731.376   -52757.563   -53532.526   -34.641082    1533959.3    294.05875 
   31800    330.73017   -65323.755   -53237.309   -56265.649   -135.36764    1533959.3    298.79195 
   31900    328.90505   -65657.594   -53637.847   -57493.664   -172.35614    1533959.3    287.53062 
   32000    330.35507   -66062.169   -53989.432   -59761.341   -258.00598    1533959.3    288.96322 
   32100    330.17304   -66449.721   -54383.636   -61633.016   -324.04933    1533959.3    211.64199 
   32200    331.05791   -66884.529   -54786.107   -64025.661   -413.01065    1533959.3      278.233 
   32300    331.70935   -67288.243   -55166.014   -65918.949   -480.65924    1533959.3    272.34379 
   32400    330.03236   -67603.817   -55542.874   -67182.526   -520.29574    1533959.3    294.37741 
   32500    326.36873   -67808.958     -55881.9   -68839.474   -579.20724    1533959.3    285.45322 
   32600    322.30789   -67922.356     -56143.7   -69153.198   -581.52823    1533959.3     288.7945 
   32700    325.77587   -68212.173   -56306.782   -70090.573   -616.13939    1533959.3    267.15959 
   32800    324.73033   -68372.837   -56505.654    -71085.63   -651.72904    1533959.3    275.71613 
   32900     325.1728   -68577.825   -56694.473   -72350.729   -699.83911    1533959.3    274.50963 
   33000    328.33961     -68850.4   -56851.317   -73841.749   -759.47713    1533959.3    264.19931 
   33100    328.37019    -69066.54   -57066.339   -74661.264    -786.4981    1533959.3    270.71588 
   33200    323.21485   -69191.221   -57379.422   -75183.996   -795.86952    1533959.3    285.38815 
   33300    323.57928   -69350.812   -57525.694   -76105.574   -830.52588    1533959.3    289.85425 
   33400    318.01103   -69236.203   -57614.575   -75640.958   -805.78442    1533959.3    235.60289 
   33500    306.21661   -68680.644    -57490.04    -73183.13   -701.48558    1533959.3    234.50941 
   33600    303.27719   -68196.214    -57113.03   -71308.882   -634.55858    1533959.3    285.38097 
   33700    305.78752   -67787.093    -56612.17   -68497.236    -531.2658    1533959.3    282.15894 
   33800    310.74952   -67422.955   -56066.698   -66449.323   -464.10627    1533959.3    289.49933 
   33900    313.83631   -67007.872   -55538.809   -64248.559   -389.32829    1533959.3    289.51932 
   34000    312.76892   -66501.411   -55071.355   -61524.026   -288.43624    1533959.3    279.98107 
   34100    319.47445   -66261.541   -54586.433   -60101.489   -246.52459    1533959.3    270.25503 
   34200    317.08675   -65712.025   -54124.175   -57678.648   -158.88594    1533959.3    277.90356 
   34300    315.60546   -65123.234   -53589.518   -54933.614   -60.081474    1533959.3    294.76096 
   34400    313.45345   -64468.979   -53013.907   -51252.249    78.746598    1533959.3    296.43945 
   34500    318.95529    -64167.94   -52511.805   -49525.166     133.5036    1533959.3    298.76258 
   34600     313.6447   -63422.866   -51960.805   -46538.316    242.38681    1533959.3    297.22363 
   34700    318.89866   -63033.305    -51379.24   -44136.322    323.76048    1533959.3    294.07875 
   34800    314.07215   -62213.737   -50736.055   -40129.195    474.12963    1533959.3    282.38538 
   34900    319.96331   -61894.705   -50201.732   -38619.197     517.7426    1533959.3    269.24846 
   35000    319.22832   -61325.085   -49658.972   -35879.899    615.92844    1533959.3    254.47168 
   35100    319.40307   -60815.105   -49142.606   -33849.796    683.59291    1533959.3    241.59499 
   35200    320.92771   -60449.403   -48721.187   -31561.343    767.04984    1533959.3    247.21077 
   35300    314.75153   -59624.117   -48121.607    -27872.84    905.12565    1533959.3    289.76954 
   35400    319.11353   -59143.816   -47481.898   -25323.973    990.46552    1533959.3    288.64266 
   35500    319.71085   -58570.295   -46886.548   -22662.304    1082.8306    1533959.3    290.69013 
   35600    338.03556   -59140.194   -46786.775   -25270.424    961.78699    1533959.3    290.46889 
   35700    337.52969   -59511.026   -47176.094   -27056.928    899.33245    1533959.3    288.72353 
   35800    331.99382   -59978.878   -47846.253   -30136.545    791.62894    1533959.3    289.40545 
   35900    325.68747   -60335.352   -48433.191   -32907.946    693.98282    1533959.3    288.66272 
   36000    333.72782    -61312.52   -49116.526   -37031.752    540.19281    1533959.3    280.52149 
   36100    333.12666   -61941.995    -49767.97   -39805.003    445.34746    1533959.3    289.15765 
   36200    329.47609   -62409.346   -50368.731    -42859.69    335.65626    1533959.3    297.58635 
   36300    326.32374   -62812.358   -50886.944   -45390.672    245.68493    1533959.3    294.78085 
   36400    327.73609   -63360.239   -51383.212   -47864.348    157.29418    1533959.3    295.28494 
   36500    329.36787   -63820.612   -51783.952   -49769.237    90.058342    1533959.3     296.4229 
   36600    324.79809   -64028.747   -52159.088   -50728.585    63.943932    1533959.3    294.40509 
   36700    326.02748   -64432.618   -52518.031   -52421.485    4.3156218    1533959.3    298.67323 
   36800    325.65556   -64820.194     -52919.2   -54644.788   -77.134311    1533959.3    293.75744 
   36900    324.07058   -65142.664   -53299.592   -56251.896    -131.9688    1533959.3    290.66878 
   37000    325.23771   -65507.064   -53621.339   -58062.765   -198.53298    1533959.3    291.48669 
   37100    326.80861   -65839.767   -53896.634   -59296.405   -241.37131    1533959.3    275.13267 
   37200    330.60108   -66256.838   -54175.111   -61460.493   -325.65866    1533959.3    297.80863 
   37300    327.64922    -66482.17   -54508.318   -62909.685    -375.5435    1533959.3    277.28717 
   37400    324.64077   -66651.025   -54787.115   -63253.038   -378.42913    1533959.3    281.33189 
   37500    325.87006   -66995.607   -55086.773   -65159.098   -450.23576    1533959.3    302.41358 
   37600    326.29799   -67296.402    -55371.93   -66433.089   -494.43693    1533959.3    264.65809 
   37700    320.29263   -67369.225   -55664.217   -67149.238   -513.38366    1533959.3     301.2048 
   37800    325.51388   -67722.228   -55826.411   -68281.201   -556.73265    1533959.3    296.52915 
   37900    324.71238   -67864.715   -55998.188   -69474.839   -602.41012    1533959.3    292.39011 
   38000    326.53546   -68087.631   -56154.481   -70162.621   -626.16782    1533959.3    290.05851 
   38100    324.55299   -68221.488   -56360.786     -70916.7    -650.6535    1533959.3    225.98609 
   38200    327.20766    -68478.44   -56520.724   -71768.268   -681.56955    1533959.3    289.91736 
   38300    326.82577   -68677.699   -56733.939   -73033.121   -728.57803    1533959.3    278.40715 
   38400     326.6133   -68857.995   -56921.999   -73710.896   -750.46844    1533959.3    291.64721 
   38500    327.16277   -69086.626    -57130.55   -75050.474   -801.02567    1533959.3    299.87267 
   38600    331.41946   -69424.732   -57313.097   -75861.997    -829.1411    1533959.3    297.77776 
   38700    328.70253   -69589.431   -57577.085   -77279.732    -880.7139    1533959.3    302.63309 
   38800    319.84579   -69565.532   -57876.854   -77604.315   -881.82311    1533959.3    301.19031 
   38900    322.02967   -69718.977   -57950.489   -78612.897    -923.6155    1533959.3    297.79446 
   39000    321.09662   -69741.749    -58007.36   -78190.005   -902.16995    1533959.3    291.64296 
   39100    302.03609   -69179.009   -58141.181   -75954.553   -796.26279    1533959.3    201.58934 
   39200     313.2226   -69150.143   -57703.507   -75447.326   -793.15372    1533959.3    263.48944 
   39300    308.32909   -68661.196   -57393.392   -73153.009   -704.45935    1533959.3    239.83637 
   39400     306.4343   -68206.867   -57008.308   -71081.243   -629.06419    1533959.3    261.33338 
   39500    306.64184   -67747.302   -56541.158   -67901.036   -507.78976    1533959.3    282.12801 
   39600    306.01905   -67233.662   -56050.278   -66114.513   -449.87415    1533959.3    291.75271 
   39700    316.21358   -67036.143   -55480.203    -64767.65   -415.15153    1533959.3    294.62886 
   39800     316.7293   -66565.007   -54990.219   -61608.431   -295.83594    1533959.3    289.19952 
   39900    320.62324   -66246.505   -54529.414   -59955.799   -242.56093    1533959.3     299.2283 
   40000    318.20163   -65687.706   -54059.113   -57543.861   -155.76921    1533959.3    292.04503 
   40100    312.68105   -64952.553   -53525.708   -54232.683      -31.602    1533959.3    230.18725 
   40200    315.15381   -64493.399   -52976.188   -51239.913    77.611986    1533959.3    276.06619 
   40300    314.55168   -63918.357    -52423.15   -48327.428    183.07991    1533959.3    293.32213 
   40400    313.86454   -63281.044   -51810.949    -45736.11    271.54705    1533959.3    292.67412 
   40500    318.76325   -62822.565   -51173.448   -43626.186    337.36473    1533959.3    278.33288 
   40600    318.86995   -62179.708   -50526.692   -40579.397    444.64688    1533959.3    276.51956 
   40700    318.81911   -61575.323   -49924.164   -37194.194    569.03327    1533959.3    274.22516 
   40800    324.74296   -61311.241   -49443.597   -35444.025    625.78482    1533959.3    274.78479 
   40900    318.80637   -60862.844    -49212.15   -33337.693    709.59273    1533959.3    277.04065 
   41000     314.8422   -60435.267   -48929.443   -31630.052    773.28769    1533959.3    273.72514 
   41100    316.47931   -59915.333   -48349.681   -29286.352     852.1362    1533959.3    269.17312 
   41200    316.86485    -59207.17   -47627.429    -25982.52    967.53358    1533959.3    283.82331 
   41300    322.01457   -58834.116    -47066.18   -24494.893    1008.9429    1533959.3    283.84329 
   41400     325.0333    -58618.17   -46739.915   -22903.013    1065.5163    1533959.3    285.30254 
   41500    326.55924   -58618.522   -46684.503   -22988.497    1059.2182    1533959.3    273.82646 
   41600    337.34056   -59904.203   -47576.183   -29812.594    794.03743    1533959.3    274.03775 
   41700    334.21922   -60521.291   -48307.339   -32950.439    686.45781    1533959.3    277.12577 
   41800    329.83884    -60995.87   -48941.998   -34829.651    630.82587    1533959.3    277.90761 
   41900    333.72932   -61811.325   -49615.277   -39412.192    456.08078    1533959.3    276.24838 
   42000    333.29889   -62441.104   -50260.786   -43402.628    306.56157    1533959.3    261.75203 
   42100     329.4015   -62842.524   -50804.635   -44440.136    284.49489    1533959.3    287.76399 
   42200    328.12643     -63262.1   -51270.807   -47145.864    184.38614    1533959.3    290.26486 
   42300     325.7172   -63594.383   -51691.136   -49201.918    111.26872    1533959.3    285.61961 
   42400    327.37938   -64052.024   -52088.033   -51104.687    43.955818    1533959.3    292.56531 
   42500     326.3994   -64381.776   -52453.598   -52720.021   -11.909219    1533959.3    299.21933 
   42600    323.98272   -64643.493   -52803.632   -53900.947   -49.050287    1533959.3    177.52969 
   42700    327.31617   -65112.283   -53150.601   -55754.474   -116.39386    1533959.3    291.86599 
   42800    323.01324   -65276.469   -53472.037   -57037.932    -159.3965    1533959.3    287.96215 
   42900    322.18833   -65537.513   -53763.227   -58631.021   -217.59175    1533959.3    287.28602 
   43000    326.14994    -65967.75   -54048.688   -60747.912   -299.45722    1533959.3    288.03017 
   43100    326.39973   -66203.889   -54275.698   -61010.147   -301.03178    1533959.3    202.75503 
   43200    324.49481   -66414.825    -54556.25   -62629.782   -360.88918    1533959.3    265.51673 
   43300    329.55241   -66846.222   -54802.818   -64323.694   -425.58587    1533959.3    266.54516 
   43400    329.05929    -67069.51   -55044.126     -65574.2   -470.69729    1533959.3    279.81726 
   43500    323.05637   -67156.948   -55350.939   -66222.162   -485.94675    1533959.3      265.469 
   43600    322.61884   -67366.125   -55576.106   -66729.684   -498.56809    1533959.3    257.72989 
   43700    324.49344   -67602.687   -55744.162   -68336.055   -562.86119    1533959.3    277.13877 
   43800    320.80394   -67673.883   -55950.189   -69401.294   -601.26818    1533959.3    302.31767 
   43900    321.49877   -67906.237   -56157.151   -70462.425   -639.44979    1533959.3    298.10263 
   44000     325.0288   -68177.821   -56299.731    -71241.21   -667.88834    1533959.3    292.57633 
   44100    326.82738   -68377.531   -56433.712    -71943.34   -693.28475    1533959.3    252.67516 
   44200    328.09739    -68562.91   -56572.679   -72796.182   -725.19521    1533959.3    298.74471 
   44300    324.92035   -68662.397    -56788.27   -73745.322   -757.98503    1533959.3    291.68818 
   44400    325.50152   -68841.902   -56946.537   -73821.875    -754.3324    1533959.3    285.57236 
   44500    334.35964   -69165.857   -56946.774   -74955.325   -804.98734    1533959.3    288.87366 
   44600    325.05473   -69133.971   -57254.933    -75019.33   -794.07358    1533959.3    290.27832 
   44700    323.57481    -69273.18   -57448.226   -75771.544   -819.05751    1533959.3    291.01486 
   44800    316.57113   -69219.951   -57650.945   -75662.914   -805.14011    1533959.3    299.20226 
   44900    323.69148   -69462.472   -57633.254   -76893.149   -860.92279    1533959.3    291.41358 
   45000    322.18139   -69533.759   -57759.726   -76829.405   -852.42001    1533959.3    288.06993 
   45100    300.80736   -68940.211   -57947.287   -75612.002   -789.61779    1533959.3    288.18018 
   45200     302.5539   -68643.986   -57587.235   -73859.864   -727.39113    1533959.3    300.16238 
   45300    304.25455   -68230.753   -57111.853    -71644.59   -649.61746    1533959.3    306.94244 
   45400    302.96678   -67667.309    -56595.47   -68939.246   -551.77029    1533959.3    302.85423 
   45500    304.35252   -67128.708   -56006.227    -65524.46   -425.46769    1533959.3    297.14404 
   45600    316.92464   -67029.011   -55447.085   -64461.488   -402.94635    1533959.3    245.04105 
   45700    323.05715    -66841.25   -55035.213   -63593.867   -382.57425    1533959.3    286.06493 
   45800    312.94308   -66198.698   -54762.277   -60504.426   -256.67571    1533959.3     297.3058 
   45900    312.63443   -65743.163   -54318.022   -57661.576   -149.45784    1533959.3    292.55163 
   46000    319.59463   -65461.632   -53782.132   -56736.161   -132.04594    1533959.3    290.17208 
   46100    315.97264   -64782.087   -53234.951   -53163.809    3.1801019    1533959.3    256.41348 
   46200    320.66466   -64415.808   -52697.204   -51345.001    60.443843    1533959.3    279.69056 
   46300    313.06579   -63575.598   -52134.693   -47160.791    222.33483    1533959.3    243.86679 
   46400    318.36301   -63256.718   -51622.228   -45872.649     257.0078    1533959.3    262.47965 
   46500    316.57247   -62631.473   -51062.418   -42883.755    365.58856    1533959.3    253.29085 
   46600    318.76461   -62185.601   -50536.434   -40127.621    465.27688    1533959.3     278.6376 
   46700    321.69554    -61730.75   -49974.473   -38540.291     511.1112    1533959.3     290.4351 
   46800     320.1377   -61036.674   -49337.328   -34953.719    642.95142    1533959.3    285.02549 
   46900    317.77466   -60272.789     -48659.8   -31324.466    774.89431    1533959.3    273.58873 
   47000    315.80128   -59451.498   -47910.625   -27500.011    912.36023    1533959.3    276.57773 
   47100    319.47256   -59039.009    -47363.97   -25488.655    977.83278    1533959.3    279.61151 
   47200    324.80729   -58796.218   -46926.223   -24569.922    999.33297    1533959.3     286.9038 
   47300    332.49579   -59038.879   -46887.909    -25486.92    956.63026    1533959.3    287.64972 
   47400    332.34414   -59596.123   -47450.695   -28705.852    837.89981    1533959.3    286.95071 
   47500    331.48901   -60311.185   -48197.008   -31629.856     740.5564    1533959.3    290.42585 
   47600    329.77223    -60923.33   -48871.893   -34743.992    631.52117    1533959.3    291.54849 
   47700    326.85337    -61258.87   -49314.101   -37007.619    550.10325    1533959.3    289.01578 
   47800     332.8843   -62018.564   -49853.397   -40005.997    440.18155    1533959.3    292.78873 
   47900    329.91945   -62472.696   -50415.879   -42496.746    353.98746    1533959.3    294.67233 
   48000    332.86592   -63159.601   -50995.106   -45664.846    238.26412    1533959.3    289.65288 
   48100    332.22726   -63630.406    -51489.25   -48167.523    148.48216    1533959.3    281.64813 
   48200    328.15968   -63955.644   -51963.137   -50317.102    73.578216    1533959.3    294.97385 
   48300    329.57466    -64457.56   -52413.342   -52044.708     16.47805    1533959.3     283.5681 
   48400    328.29556   -64823.354   -52825.881   -53872.942   -46.803908    1533959.3    282.26737 
   48500    326.41753   -65176.099   -53247.259   -56642.169   -151.75347    1533959.3    281.16423 
   48600    325.22643    -65496.78   -53611.468   -57805.427   -187.47116    1533959.3    227.64522 
   48700    329.18042   -65887.347   -53857.537   -59478.698   -251.26746    1533959.3    296.40091 
   48800     325.4919   -66066.493   -54171.479   -59949.771   -258.29127    1533959.3    293.22062 
   48900    319.71498   -66220.402   -54536.504   -61222.541   -298.86776    1533959.3    289.12357 
   49000    324.30047   -66677.729   -54826.255   -63509.102    -388.1257    1533959.3    282.14072 
   49100    320.58303   -66825.768   -55110.147   -64551.697   -422.03996    1533959.3    238.36487 
   49200    324.44269   -67113.442   -55256.772   -65579.733   -461.43928    1533959.3    286.85102 
   49300    325.32003   -67284.622   -55395.889   -66518.677   -497.19178    1533959.3    287.71582 
   49400     303.5247   -66626.689   -55534.461   -64080.602   -382.01492    1533959.3    290.06713 
   49500     303.6114   -66175.407    -55080.01    -62252.93   -320.63155    1533959.3      292.219 
   49600     309.8744   -65853.637    -54529.36   -59376.167   -216.65363    1533959.3    295.38683 
   49700    310.48169   -65291.637   -53945.167   -57063.853   -139.40617    1533959.3    290.90405 
   49800    314.66701    -64839.78   -53340.359   -54763.828   -63.629483    1533959.3    292.04666 
   49900    309.01733   -63987.619   -52694.664   -50115.661    115.28218    1533959.3    291.48406 
   50000    308.79116   -63285.588   -52000.898   -46883.874    228.73244    1533959.3    251.89623 
   50100     312.5052   -62720.987   -51300.569   -44407.431    308.12521    1533959.3     277.8533 
   50200    310.76905   -61876.158   -50519.186   -40251.847    458.95297    1533959.3    278.41898 
   50300    313.76415   -61237.104   -49770.677   -36889.664    575.78496    1533959.3    282.45232 
   50400    316.15443   -60657.901   -49104.122   -33592.316    693.38212    1533959.3    290.51959 
   50500     315.6322   -59916.782   -48382.088   -30230.425    811.38448    1533959.3     292.2532 
   50600    318.80369   -59301.434   -47650.839   -27276.686    910.73039    1533959.3    291.11908 
   50700     326.9765   -59080.281   -47131.013   -25946.446    946.95616    1533959.3    286.31723 
   50800    331.88838   -58885.662    -46756.89   -25125.532    966.92782    1533959.3    284.91087 
   50900    320.42985   -58589.725   -46879.703   -24395.527     1005.049    1533959.3    289.23701 
   51000    326.85644   -59651.555   -47706.674   -29254.579    824.81387    1533959.3     287.2565 
   51100    328.22066   -60477.886    -48483.15   -33614.245    664.64427    1533959.3    202.49924 
   51200     329.0397    -61182.63   -49157.963   -36909.257    547.52064    1533959.3    294.79825 
   51300    327.89509   -61739.155   -49756.317   -39951.176    438.29256    1533959.3    300.88588 
   51400     325.2934   -62130.043   -50242.283   -41822.839    376.35153    1533959.3    296.10503 
   51500    327.95849   -62638.928   -50653.774   -44566.038    272.12352    1533959.3    292.33876 
   51600    326.23692   -62960.405   -51038.164   -46158.491    218.12276    1533959.3    176.07523 
   51700    319.53578   -63066.867   -51389.518   -46975.282    197.31757    1533959.3    295.01742 
   51800    313.88829   -63096.413    -51625.45   -47359.312    190.69758    1533959.3    295.66731 
   51900    332.55667   -63803.362   -51650.168   -49743.706    85.219352    1533959.3    292.67228 
   52000    328.56982   -64024.735   -52017.239   -51029.891    44.134743    1533959.3    286.88476 
   52100    326.23223   -64344.217   -52422.148   -53250.037   -37.006857    1533959.3    237.11865 
   52200    326.38597   -64668.997    -52741.31   -54577.723   -82.088161    1533959.3    289.08909 
   52300    324.88504   -64837.344   -52964.507   -55603.849   -117.97931    1533959.3    294.09009 
   52400    324.82956   -65093.736   -53222.927   -56614.845    -151.6197    1533959.3     295.3833 
   52500    325.38355   -65414.543   -53523.489   -58721.911   -232.37092    1533959.3    300.64971 
   52600     324.0794   -65632.612   -53789.217   -59338.496   -248.05432    1533959.3    246.76499 
   52700    324.77851   -65920.428   -54051.485   -60415.475   -284.47214    1533959.3    301.21648 
   52800    328.14497   -66262.659   -54270.689   -62042.618   -347.40745    1533959.3     299.6687 
   52900    319.50534   -66199.767    -54523.53   -62639.876   -362.80296    1533959.3    299.41456 
   53000    325.24868   -66522.187   -54636.061   -63391.852   -391.38635    1533959.3    297.60746 
   53100    326.66323   -66793.087   -54855.267   -64548.624   -433.29579    1533959.3    219.59396 
   53200    332.83427   -67186.837   -55023.498   -66282.819   -503.29485    1533959.3    297.82914 
   53300    333.69348   -67505.771   -55311.033   -67357.298   -538.47146    1533959.3    292.26766 
   53400     325.5011   -67560.521   -55665.171   -68210.454    -560.7777    1533959.3    297.34838 
   53500    322.85269   -67717.752   -55919.187   -69111.918   -589.71881    1533959.3    296.00326 
   53600    328.17263   -67998.938   -56005.957   -70263.498   -637.31612    1533959.3     223.4962 
   53700    321.56253   -67969.719   -56218.303   -70170.038   -623.64651    1533959.3    301.03791 
   53800    324.31462   -68214.575   -56362.584   -71927.678   -695.76407    1533959.3    299.67769 
   53900    327.40287   -68432.282   -56467.433   -72227.987   -704.50124    1533959.3    289.87929 
   54000     327.8429   -68594.633   -56613.702   -72875.248   -726.89572    1533959.3    279.18846 
   54100    326.69574   -68701.231   -56762.224   -73914.862   -766.72779    1533959.3    245.63387 
   54200      328.654   -68891.438   -56880.866   -74429.265   -784.41841    1533959.3    283.83541 
   54300    326.09863   -68997.253   -57080.066   -75009.815   -801.46489    1533959.3    304.58176 
   54400    324.68172   -69097.827    -57232.42   -75627.508   -822.26564    1533959.3    304.78316 
   54500    325.77581   -69268.167   -57362.778   -75943.648   -830.57015    1533959.3    301.30563 
   54600    316.49983     -69165.5   -57599.098   -75409.983   -796.15156    1533959.3    285.42719 
   54700    299.87119   -68493.446   -57534.734   -73071.892   -694.51534    1533959.3    302.86429 
   54800    302.00169   -68122.816   -57086.245   -71733.915   -654.75496    1533959.3    301.26819 
   54900    304.71336   -67671.087   -56535.419   -69115.588   -562.33711    1533959.3    293.63754 
   55000    307.45122    -67183.36   -55947.638   -66435.558   -468.81301    1533959.3    296.55808 
   55100    316.33965     -66924.7   -55364.152   -64562.339   -411.16155    1533959.3    224.11731 
   55200    311.62655   -66242.596   -54854.288   -61460.092   -295.28132    1533959.3    291.19447 
   55300    310.69581   -65619.641   -54265.346   -58193.762    -175.6013    1533959.3    301.05973 
   55400    309.04117   -64918.879   -53625.053   -54101.908   -21.315586    1533959.3    297.50234 
   55500    310.54785   -64292.553   -52943.665   -51114.577     81.76077    1533959.3    295.97088 
   55600    311.97104   -63596.599   -52195.701   -47633.294    203.94087    1533959.3    297.23501 
   55700    310.01824   -62756.126   -51426.593   -43606.542     349.5585    1533959.3    285.34913 
   55800    313.74597    -62065.17   -50599.408   -40234.092    463.33255    1533959.3    291.45347 
   55900     315.3408   -61333.661   -49809.616   -36253.519    605.96137    1533959.3    289.85425 
   56000    317.66509   -60667.387   -49058.402   -33203.389    708.72357    1533959.3    236.28138 
   56100    318.58083   -59923.575   -48281.124   -29982.806    817.94001    1533959.3    279.26653 
   56200    321.53657   -59423.063   -47672.595    -28063.05    876.55221    1533959.3    288.78535 
   56300    318.85461   -58630.297   -46977.842   -23896.074    1031.7615    1533959.3    289.74592 
   56400    321.97216   -58387.112   -46620.726   -22491.238    1078.5949    1533959.3    293.60712 
   56500    334.94727   -59103.063   -46862.505   -26234.143     922.0936    1533959.3    289.07255 
   56600    335.20436    -59947.19   -47697.237   -30372.465    774.42217    1533959.3    233.45722 
   56700    333.36567   -60685.855   -48503.096   -33927.007    651.55531    1533959.3    288.39557 
   56800    326.00769   -61031.766   -49117.902   -35628.566    602.97714    1533959.3    285.85223 
   56900    329.56203   -61831.791   -49788.035   -40641.616    408.84753    1533959.3    284.22509 
   57000    323.00231    -62067.69   -50263.657   -41043.932    412.12433    1533959.3    286.71944 
   57100    327.23199   -62596.074   -50637.469   -43551.957    316.72441    1533959.3    266.73128 
   57200     323.8855   -62800.791   -50964.482   -45794.439    231.10238    1533959.3    282.59048 
   57300    321.49903   -63063.996   -51314.901   -46641.758    208.89081    1533959.3    286.47054 
   57400    324.87952   -63547.327   -51674.693   -49606.813    92.434807    1533959.3    287.41752 
   57500    304.23351   -62703.548   -51585.416   -45332.337    279.51442    1533959.3    272.40463 
   57600    308.09609   -62072.127   -50812.838   -42594.677    367.35415    1533959.3    277.88957 
   57700    308.96107   -61231.942   -49941.043   -38359.201    517.71163    1533959.3    275.00946 
   57800    313.12099   -60598.035   -49155.113   -34781.255     642.5155    1533959.3    270.27175 
   57900    316.18926   -59929.986   -48374.934   -31221.616     766.7582    1533959.3    258.93722 
   58000    321.57938   -59460.541   -47708.509   -28790.229    845.65247    1533959.3    259.61213 
   58100    320.51667   -58726.889   -47013.693   -24486.369    1006.9778    1533959.3    265.02917 
   58200    321.99739   -58437.915   -46670.607   -23646.535    1029.1825    1533959.3    287.36278 
   58300    338.93979   -59376.592   -46990.129   -28765.564    814.64322    1533959.3    276.61749 
   58400    335.55894   -59824.934   -47562.023       -30850    747.03215    1533959.3    273.11521 
   58500    333.24643    -60434.53   -48256.128   -33335.729    666.94608    1533959.3    287.69352 
   58600    330.31445   -61003.012   -48931.759   -36881.232    538.66198    1533959.3    294.65059 
   58700    326.52429   -61398.678   -49465.935   -38392.279    494.99557    1533959.3    292.04157 
   58800    326.30663   -61848.403   -49923.615   -40835.219     406.2539    1533959.3    289.48255 
   58900    306.93798   -61289.632   -50072.666     -38850.1    501.65186    1533959.3    292.29781 
   59000    326.58188   -62203.289   -50268.443   -43320.272    310.58517    1533959.3    288.62677 
   59100    328.12596   -62616.012   -50624.737   -44433.927    276.73094    1533959.3    271.99127 
   59200    328.18132    -63071.44   -51078.142   -46481.263    205.48178    1533959.3    295.53523 
   59300    333.83801   -63751.305   -51551.285   -49627.855    85.977864    1533959.3    289.90133 
   59400    327.09772   -63987.045   -52033.347   -50798.858    55.181984    1533959.3    290.37699 
   59500    325.58655   -64311.428   -52412.955    -53373.07   -42.917413    1533959.3    287.82599 
   59600    321.40374   -64430.693    -52685.08   -54706.555   -90.360509    1533959.3    230.09292 
   59700    322.84014   -64670.431   -52872.325   -55081.723   -98.760709    1533959.3    289.85525 
   59800    305.64522   -64205.019   -53035.297    -53157.84   -5.4777382    1533959.3    290.85059 
   59900    306.27471   -63715.551   -52522.824   -50803.621    76.848881    1533959.3    286.00446 
   60000    313.99227   -63392.374   -51917.611   -48894.126    135.15061    1533959.3    285.43049 
   60100    313.28621   -62710.742   -51261.782   -45225.566    269.82055    1533959.3    254.54349 
   60200    304.00393   -61517.137   -50407.395   -39395.496    492.23503    1533959.3    290.90828 
   60300    311.58965   -61029.082   -49642.122   -37194.429    556.41537    1533959.3    291.22864 
   60400    315.63971   -60365.118   -48830.149   -33403.959    689.55508    1533959.3    295.31529 
   60500    319.07824   -59725.956   -48065.328   -29598.074    825.49146    1533959.3     291.6533 
   60600    325.91887   -59479.671   -47569.054   -28740.192    841.65543    1533959.3     285.0497 
   60700    321.72571   -58693.514   -46936.134    -25361.54    964.39045    1533959.3    285.13749 
   60800    338.85726   -59178.773   -46795.325   -26854.968    891.33959    1533959.3    286.22618 
   60900    334.18603   -59202.876   -46990.137   -27717.751    861.48112    1533959.3    282.61828 
   61000    334.67355   -59924.664   -47694.109   -31382.697    729.12474    1533959.3    286.99194 
   61100    331.09871   -60521.566   -48421.653   -34477.387    623.31263    1533959.3    277.92364 
   61200    323.04421   -60785.707   -48980.143   -36435.071    560.76827    1533959.3    250.15202 
   61300    322.09806   -61262.037    -49491.05   -38549.521     489.0894    1533959.3    256.10098 
   61400    310.87411   -60815.316   -49454.505   -36291.691    588.38152    1533959.3    278.11916 
   61500    309.76187   -60218.687   -48898.522   -34126.771    660.30145    1533959.3    288.15959 
   61600    315.32327   -59745.736   -48222.331   -31153.515    762.98092    1533959.3    296.54928 
   61700    315.62287   -59023.306   -47488.954   -28172.645    863.44446    1533959.3    281.62979 
   61800    333.74719   -59321.839   -47125.138   -28266.565    842.98353    1533959.3    269.93986 
   61900     332.2049   -58816.158    -46675.82   -25817.337    932.38006    1533959.3    286.70552 
   62000    333.01096   -59015.966    -46846.17   -27201.146    878.13813    1533959.3    276.48675 
   62100    336.94237   -59980.859   -47667.391   -30654.866    760.46468    1533959.3    262.00645 
   62200    331.51997   -60470.003   -48354.694   -34345.537    626.21329    1533959.3    281.89971 
   62300    327.16774   -60865.087    -48908.83   -36742.057    543.85817    1533959.3     287.7028 
   62400    334.98942   -61697.484   -49455.385    -40213.77    413.10283    1533959.3     290.9878 
   62500    328.04816   -61963.802    -49975.37   -42062.345     353.7145    1533959.3    294.79991 
   62600     326.3141    -62314.06   -50388.999   -44232.375    275.20281    1533959.3    257.26323 
   62700    325.56865   -62622.895   -50725.076   -45485.782    234.19793    1533959.3    287.71839 
   62800    328.24518   -63063.802    -51068.17   -47097.002    177.51234    1533959.3    283.72348 
   62900    326.86447   -63363.299   -51418.125   -48739.971    119.71424    1533959.3    286.51242 
   63000    328.52383    -63718.54   -51712.725   -50562.642    51.409056    1533959.3    290.13415 
   63100    327.10308   -64010.972   -52057.078   -51855.768    8.9986123    1533959.3    224.86371 
   63200     331.2838   -64457.243   -52350.566   -54279.621   -86.229289    1533959.3    298.45836 
   63300    328.68229    -64645.33   -52633.724   -55581.675   -131.77424    1533959.3    300.42661 
   63400    332.37152   -65205.228     -53058.8   -57773.312   -210.74005    1533959.3    296.35337 
   63500     326.0131   -65343.281    -53429.22   -58678.988   -234.66609    1533959.3    299.17985 
   63600    325.38099   -65588.331    -53697.37   -60209.339   -291.08683    1533959.3    247.30624 
   63700    321.40942   -65687.654   -53941.833   -61442.031   -335.26097    1533959.3    293.62727 
   63800     325.3644   -66031.031   -54140.677   -62095.744   -355.59375    1533959.3    296.76938 
   63900    327.69151   -66279.925   -54304.527   -63299.837   -402.09291    1533959.3    297.58255 
   64000    325.22829   -66409.865   -54524.485    -64159.75   -430.69909    1533959.3    292.28742 
   64100     305.0333   -65836.786   -54689.426   -62225.651   -336.87141    1533959.3    244.54131 
   64200    301.61059   -65218.887   -54196.609   -58696.428   -201.14317    1533959.3     288.1388 
   64300    307.22056   -64832.453    -53605.16   -57083.359   -155.47647    1533959.3    290.83788 
   64400    316.86848     -64589.4   -53009.526   -54264.798   -56.111011    1533959.3    289.87949 
   64500    307.45505    -63634.57   -52398.708   -49514.754    128.91357    1533959.3    288.08161 
   64600    311.64162   -63118.712   -51729.853   -48006.324     166.4428    1533959.3    290.09201 
   64700    311.04739   -62348.071   -50980.927   -43234.242    346.27904    1533959.3    288.40568 
   64800    312.00424    -61575.87   -50173.759   -39640.029    470.86071    1533959.3    286.54922 
   64900     315.4405   -60954.171   -49426.483   -36451.811    579.97151    1533959.3    284.64887 
   65000    310.12217   -59887.136   -48553.805   -30814.258    792.96279    1533959.3    285.31419 
   65100    314.56502   -59283.369   -47787.675   -28753.462    850.83473    1533959.3    283.46672 
   65200    323.10574   -59106.788   -47298.976   -27135.264    901.32363    1533959.3    299.07169 
   65300    329.98463   -58922.207   -46863.007   -26039.798    930.80334    1533959.3    294.98443 
   65400    337.45038    -59106.26   -46774.226   -27280.242    871.38661    1533959.3    292.56776 
   65500    335.63989   -59414.279    -47148.41   -28601.111    829.06952    1533959.3    288.62379 
   65600    329.71585   -59919.587    -47870.21   -31078.668     750.5867    1533959.3    291.68534 
   65700    327.39346   -60561.897   -48597.391   -34970.907     609.1077    1533959.3    287.65485 
   65800    328.93674   -61277.285   -49256.381   -39000.407    458.44492    1533959.3    288.15028 
   65900    323.71687   -61533.433   -49703.287   -39340.763    463.20777    1533959.3    282.87026 
   66000    327.52982   -62205.712   -50236.223   -43136.725    317.34954    1533959.3    280.49935 
   66100    330.68658   -62798.279   -50713.427    -45496.83    233.18337    1533959.3    273.43926 
   66200    324.78322   -62930.336   -51061.221   -45724.739    238.54225    1533959.3    294.46317 
   66300    327.43116   -63376.087   -51410.204   -48981.247    108.57506    1533959.3    280.97551 
   66400    324.41448   -63618.724   -51763.084   -50553.666    54.061358    1533959.3     291.0912 
   66500    325.39496   -64023.037   -52131.566   -52156.831   -1.1293648    1533959.3    290.33478 
   66600    328.50521   -64452.067   -52446.932   -54072.003   -72.641109    1533959.3    291.06898 
   66700    325.83508   -64695.237   -52787.682   -55191.852   -107.46707    1533959.3    281.54831 
   66800    326.38573   -65048.933   -53121.254   -56441.902   -148.43387    1533959.3    296.92443 
   66900     325.1386   -65328.478   -53446.376   -58358.564   -219.57619    1533959.3    292.71252 
   67000    324.16186   -65437.998    -53591.59   -59223.029   -251.72693    1533959.3    294.21634 
   67100    329.13603   -65833.479   -53805.291   -60203.518   -286.00254    1533959.3    292.01351 
   67200     329.1137   -66139.236   -54111.864   -61977.276   -351.58613    1533959.3      285.764 
   67300    333.94398   -66682.627   -54478.733   -64846.926   -463.46116    1533959.3    277.54497 
   67400    325.90712   -66820.565   -54910.377   -65008.207   -451.37587    1533959.3     279.4904 
   67500     325.2464     -67108.2   -55222.158   -66449.322   -501.85744    1533959.3    284.38581 
   67600    326.07462   -67390.092   -55473.782   -67786.041   -550.36144    1533959.3    272.08955 
   67700    323.63987   -67517.078   -55689.746   -68379.949   -567.25567    1533959.3    284.33415 
   67800    323.99728   -67672.242   -55831.849    -69420.51   -607.41702    1533959.3    283.13606 
   67900    321.03495   -67735.304   -56003.168   -69146.201    -587.4973    1533959.3    286.01167 
   68000    323.60311   -67931.016   -56105.027   -70422.083   -639.97642    1533959.3    271.42574 
   68100    327.49591    -68205.57    -56237.32   -71075.587   -663.27475    1533959.3     241.6334 
   68200    325.35139   -68333.764   -56443.884   -71726.753   -683.14857    1533959.3    249.50917 
   68300    325.11417   -68480.681   -56599.471   -72672.176   -718.45447    1533959.3    227.06624 
   68400    315.48318   -68385.927   -56856.679   -72661.216   -706.46724    1533959.3    261.92284 
   68500    328.02148   -68853.681   -56866.225   -74384.421   -783.06836    1533959.3    270.85871 
   68600    334.58543    -69181.78   -56954.445   -75221.802   -816.55602    1533959.3    271.64847 
   68700    330.62548   -69316.617   -57233.998   -76292.229   -851.90831    1533959.3    267.80199 
   68800    326.86648    -69432.19   -57486.942   -77395.367   -889.91222    1533959.3    259.12791 
   68900    324.78359   -69552.313   -57683.184   -78201.102   -917.15672    1533959.3    260.63379 
   69000     321.9245    -69583.84   -57819.195   -77965.564    -900.5484    1533959.3    243.15821 
   69100    302.92727    -69038.37   -57967.975   -75446.364   -781.28897    1533959.3    240.77935 
   69200    307.04369   -68798.569    -57577.74   -74394.369   -751.70809    1533959.3    292.67575 
   69300    305.19366   -68316.813   -57163.593    -72538.17   -687.24794    1533959.3    281.01956 
   69400    302.74462   -67724.355   -56660.634   -69938.722   -593.53429    1533959.3    286.47719 
   69500    303.91611   -67164.896   -56058.363   -66335.181   -459.37668    1533959.3    292.89526 
   69600    308.70742   -66725.658   -55444.029   -63657.512   -367.14502    1533959.3    298.60731 
   69700    315.54315   -66402.091   -54870.651    -61776.19   -308.67951    1533959.3    287.33738 
   69800    319.51782   -66065.311   -54388.618   -59589.035    -232.4601    1533959.3    282.88857 
   69900    314.20307   -65478.656    -53996.19   -57116.412   -139.47482    1533959.3    285.52589 
   70000    313.17663    -64948.34   -53503.384    -54401.38   -40.140633    1533959.3     278.2701 
   70100    316.44409   -64508.268   -52943.904   -51796.257    51.300113    1533959.3    222.19948 
   70200    314.80329   -63876.103   -52371.702   -49146.615     144.1623    1533959.3    272.55527 
   70300    312.65386    -63208.42   -51782.568   -45808.965    267.02177    1533959.3    289.07594 
   70400    320.48584   -62929.607   -51217.538   -44254.336    311.25712    1533959.3    283.79911 
   70500    314.51243   -61986.302    -50492.53   -39994.451    469.26711    1533959.3    285.69451 
   70600    323.18671   -61696.079   -49885.307   -38072.077    528.05476    1533959.3    130.47065 
   70700    320.50872   -60918.413   -49205.508   -34298.686    666.33915    1533959.3    276.98686 
   70800    317.45405   -60098.372   -48497.099   -30355.097    810.95265    1533959.3    282.78139 
   70900     325.7785   -59902.917    -47997.43   -29650.721    820.10307    1533959.3    289.33019 
   71000    319.97193   -59063.666   -47370.378   -25564.081    974.74767    1533959.3    269.39649 
   71100    337.33617   -59521.187   -47193.327   -27489.583    880.76295    1533959.3    246.05868 
   71200    323.96558   -59205.898   -47366.663   -26340.549    939.87322    1533959.3     293.2362 
   71300    327.34678   -60091.306   -48128.506   -31220.354    755.79917    1533959.3    293.36788 
   71400    332.47841   -61020.158   -48869.823   -35561.231    594.89787    1533959.3    292.17055 
   71500    333.30424    -61704.26   -49523.746   -38430.704    495.86212    1533959.3    288.28496 
   71600    323.36548   -61860.576   -50043.271   -40213.532    439.39213    1533959.3    290.81248 
   71700    327.67963   -62585.711   -50610.747   -43599.155    313.42015    1533959.3    287.24253 
   71800    326.65336   -62986.731   -51049.272    -45973.22    226.90092    1533959.3    289.48335 
   71900    326.78023   -63435.749   -51493.653   -48837.677     118.7229    1533959.3    290.14438 
   72000    326.08423   -63820.475   -51903.815   -49780.408    94.916879    1533959.3    286.76551 
   72100    324.59935   -64152.621   -52290.225   -51620.699     29.92801    1533959.3    257.79833 
   72200    326.23489   -64580.162   -52657.996   -54115.292   -65.141532    1533959.3     275.4382 
   72300    328.05382   -65002.023   -53013.384   -55591.153   -115.22701    1533959.3    266.35626 
   72400    322.46264   -65138.368   -53354.058   -56780.286   -153.15339    1533959.3    271.11731 
   72500    327.64921   -65632.414   -53658.562    -58760.87   -228.07464    1533959.3     294.5734 
   72600    308.17001   -64751.837   -53489.847   -55653.488   -96.715374    1533959.3     240.2258 
   72700    299.05297   -63708.096   -52779.285   -51122.336    74.066122    1533959.3    285.38718 
   72800    304.28291    -63175.24   -52055.303   -47381.388    208.92536    1533959.3    257.89946 
   72900    310.40755   -62641.537   -51297.777   -44812.247    289.90501    1533959.3    288.74957 
   73000    308.43061   -61698.141   -50426.627   -40211.076    456.63802    1533959.3    256.70051 
   73100     306.4737   -60654.428   -49454.429   -34795.076    655.27726    1533959.3    280.73873 
   73200    312.35258   -60057.575   -48642.734   -32194.466    735.24226    1533959.3    294.60299 
   73300     318.0735   -59508.303   -47884.392   -29016.793    843.38703    1533959.3    292.48227 
   73400    320.74516   -58868.484   -47146.939   -25607.355    962.82549    1533959.3    263.69154 
   73500     327.7052   -58652.165   -46676.267    -25052.25    966.59969    1533959.3    263.79105 
   73600    335.70335   -59004.166   -46735.978   -26323.832     912.4287    1533959.3    272.79316 
   73700    333.66371   -59731.034   -47537.383   -29995.404    784.13144    1533959.3    251.24875 
   73800    327.60379   -60251.285   -48279.092   -32640.973    699.02835    1533959.3    275.60579 
   73900    316.01052   -60333.308   -48784.788   -34061.312    658.14354    1533959.3    284.87024 
   74000     322.9403   -61067.907   -49266.141   -37284.043    535.60316    1533959.3    281.14049 
   74100    324.88046   -61570.448   -49697.779   -39481.816    456.65648    1533959.3    290.99043 
   74200    322.32253   -61825.093   -50045.903   -41367.358    387.93343    1533959.3    292.59796 
   74300    325.74159   -62276.263   -50372.125    -43867.35    290.76526    1533959.3    290.96318 
   74400    326.09708   -62575.828   -50658.698   -44693.812     266.6321    1533959.3    289.60068 
   74500    328.09804   -62987.717   -50997.462   -46886.614    183.75611    1533959.3    292.74091 
   74600    318.44764   -62933.188   -51295.605   -47249.732    180.85169    1533959.3    266.63124 
   74700     321.5538   -63334.402   -51583.305   -48909.382    119.52512    1533959.3    289.40525 
   74800    321.69374   -63611.598   -51855.387   -50088.303    78.989177    1533959.3    279.94276 
   74900    325.94858   -64033.043    -52121.34   -52132.701  -0.50784526    1533959.3    294.64272 
   75000    326.77212    -64359.52   -52417.721   -53250.518   -37.226254    1533959.3    289.57069 
   75100    309.58566   -63971.515    -52657.79   -52392.152    11.874111    1533959.3    242.97959 
   75200    332.98719   -64548.334   -52379.407   -53742.829   -60.945356    1533959.3    282.36713 
   75300    333.66234    -64794.39   -52600.789    -55082.91   -110.95151    1533959.3    262.25857 
   75400    333.11172   -65212.834   -53039.356   -56966.687    -175.5528    1533959.3    277.52808 
   75500    330.31727    -65512.16   -53440.804   -58419.119   -222.53208    1533959.3    270.85364 
   75600    327.71714   -65725.409   -53749.074   -60117.051    -284.6504    1533959.3    272.59034 
   75700    327.59501    -65979.27   -54007.399   -61066.663   -315.55113    1533959.3    284.91068 
   75800    323.81444   -66096.793   -54263.081   -61217.323   -310.85657    1533959.3    293.89473 
   75900    324.01063   -66291.927   -54451.046   -62596.893   -364.12166    1533959.3    273.68906 
   76000    303.16421   -65626.305   -54547.251   -60116.413   -248.94316    1533959.3      270.347 
   76100    301.72635   -65042.962   -54016.454   -56748.697   -122.13203    1533959.3     226.9957 
   76200    314.83696   -64938.208   -53432.576   -55783.545   -105.08897    1533959.3    278.97509 
   76300    314.33834   -64307.755   -52820.345   -52596.639    9.9997532    1533959.3    266.60632 
   76400    306.06617   -63224.266    -52039.16   -47738.107    192.25828    1533959.3    279.44124 
   76500    307.93046   -62478.075   -51224.839   -43046.964    365.55335    1533959.3    261.94525 
   76600    309.81994   -61693.479   -50371.193   -39629.435    480.15961    1533959.3    259.29243 
   76700    309.00945   -60707.681   -49415.013   -35024.303    643.26884    1533959.3    280.26282 
   76800    313.41742    -59996.18   -48542.425   -31335.672    769.14672    1533959.3    246.13319 
   76900    318.25918   -59374.212   -47743.516   -28035.197    880.96742    1533959.3    264.51872 
   77000    323.41046   -58948.113   -47129.165   -27069.691    896.66413    1533959.3    268.97634 
   77100    329.56415   -58691.553    -46647.72   -24477.653    991.00829    1533959.3    283.15709 
   77200    337.33078   -59163.841   -46836.178    -26996.86    886.82315    1533959.3    284.10207 
   77300     331.4138   -59725.747   -47614.319   -29207.647    822.78345    1533959.3    266.22304 
   77400    328.30413   -60366.259   -48368.472   -33041.789    685.10711    1533959.3    269.92301 
   77500    321.99946   -60672.503   -48905.119   -35502.767    599.08892    1533959.3    276.36451 
   77600     320.9691   -60777.295   -49047.566   -36005.841    582.96878    1533959.3    282.40915 
   77700     328.9168   -61329.228   -49309.052   -38075.569    502.13987    1533959.3    281.99599 
   77800    322.84525   -61531.885   -49733.592   -39024.878    478.68257    1533959.3       282.62 
   77900    321.88346   -61837.199   -50074.055   -41024.932    404.49835    1533959.3    283.23721 
   78000    321.59231   -62087.847   -50335.342   -42001.467     372.5266    1533959.3    279.77657 
   78100    323.86922   -62440.666   -50604.953   -44089.439    291.24531    1533959.3    216.12236 
   78200     325.2057   -62836.064   -50951.509    -46605.32    194.27588    1533959.3    249.39641 
   78300     323.2466   -63082.368   -51269.408   -47305.402    177.19219    1533959.3    282.12877 
   78400    324.30339   -63413.107   -51561.527   -48519.534    135.97798    1533959.3    282.82391 
   78500    323.78445   -63544.452   -51711.836   -49167.847    113.71702    1533959.3    296.49477 
   78600    307.71918   -63114.059   -51868.544   -48072.524    169.68317    1533959.3    293.12103 
   78700    302.37181   -62348.444   -51298.348   -44073.856    322.93684    1533959.3    291.55295 
   78800    301.84431   -61477.819       -50447   -39994.412    467.23367    1533959.3    284.69099 
   78900    309.69351   -60957.712   -49640.045    -36883.29    570.23056    1533959.3    285.93895 
   79000    309.56705   -59996.159   -48683.114   -32333.264    730.84293    1533959.3    251.68447 
   79100    317.21195   -59450.607   -47858.182   -30155.938    791.29529    1533959.3    283.32215 
   79200    320.06961   -58777.333   -47080.475    -25745.89    953.66202    1533959.3    290.49323 
   79300    331.54163   -58824.688   -46708.588   -26008.392    925.30462    1533959.3    290.23453 
   79400    323.39799   -58398.888   -46580.395   -24812.159    973.04632    1533959.3    283.91591 
   79500    332.82117   -59534.342   -47371.481   -29780.746    786.31087    1533959.3    282.81189 
   79600    326.42315   -59999.615   -48070.569   -32582.271    692.33132    1533959.3    285.29206 
   79700    325.16849   -60521.402   -48638.207   -34841.374    616.72233    1533959.3    287.41082 
   79800    317.38244   -60628.933   -49030.277   -35676.694    596.90896    1533959.3    287.35136 
   79900    316.94281   -60353.316   -48770.727   -33974.789    661.38259    1533959.3    291.11484 
   80000    313.15164     -59292.4   -47848.357   -28023.059    886.19645    1533959.3    282.56725 
   80100    318.55331   -58754.463   -47113.018   -27024.244    897.97388    1533959.3     267.3389 
   80200    327.43635   -58573.014    -46606.94   -25117.955    960.56371    1533959.3    283.99896 
   80300    340.57563   -59043.646   -46597.401   -26974.313    877.15759    1533959.3     292.9374 
   80400    335.69116   -59334.896   -47067.153   -28849.887    814.31696    1533959.3    295.78533 
   80500    324.06327   -59518.978   -47676.173    -30244.71     779.1913    1533959.3    292.80856 
   80600    330.35613   -60432.987   -48360.212   -34353.618    626.09872    1533959.3    286.49187 
   80700     329.4962   -61039.132   -48997.782   -37714.045    504.38623    1533959.3    289.51772 
   80800    325.54038    -61449.71   -49552.924   -39315.384    457.62094    1533959.3    287.84199 
   80900    315.24368   -61358.629   -49838.134   -39704.631    452.97045    1533959.3    290.06934 
   81000    325.74246   -61779.762   -49875.591   -40900.978    401.16775    1533959.3    288.01435 
   81100     310.7489   -60842.374   -49486.139   -36711.149    571.04568    1533959.3    290.85321 
   81200    314.41976    -60277.89   -48787.505   -33288.388    692.81492    1533959.3    294.65576 
   81300    313.21538   -59483.671     -48037.3   -29342.289    835.67226    1533959.3    293.43581 
   81400    322.31755    -59199.78   -47420.772   -28559.605    843.09949    1533959.3    291.30409 
   81500    319.70505   -58422.706   -46739.171   -24311.894    1002.5056    1533959.3    277.45721 
   81600    321.41206   -58207.524   -46461.606   -23571.482     1023.195    1533959.3    282.71658 
   81700    332.48503   -58935.282   -46784.706   -26235.109    918.57279    1533959.3    284.01762 
   81800    332.66256   -59698.472   -47541.408   -30113.979    779.01101    1533959.3    286.25079 
   81900    329.76664   -60273.106   -48221.873   -33914.219    639.55619    1533959.3    286.71454 
   82000    329.14123   -60842.197   -48813.819   -36335.271    557.79461    1533959.3    285.94869 
   82100    326.86722   -61271.755    -49326.48   -38404.694    488.20693    1533959.3    268.82084 
   82200    333.42241   -62085.267   -49900.435   -42617.366    325.55524    1533959.3    289.02475 
   82300    321.76628   -62130.945   -50372.083   -42845.633    336.43445    1533959.3    285.83684 
   82400    326.42051    -62736.25   -50807.301   -45851.239    221.53736    1533959.3    286.04522 
   82500    326.14399   -62950.057   -51031.213   -46811.612    188.61732    1533959.3    286.35984 
   82600    311.65452   -62546.837   -51157.506   -45543.618     250.9424    1533959.3    273.34286 
   82700    306.01667   -61924.547    -50741.25   -42585.588    364.56042    1533959.3    279.59902 
   82800    311.59208   -61463.576   -50076.527   -40188.806    441.98396    1533959.3    273.77159 
   82900    311.31966   -60692.565   -49315.471   -36364.074     578.9311    1533959.3    282.49703 
   83000    313.89978   -60007.284   -48535.901    -33022.35    693.46009    1533959.3    280.54907 
   83100    320.94429   -59580.594   -47851.771   -30156.007    791.00566    1533959.3    289.93058 
   83200     318.3484   -58693.737   -47059.781   -26001.159    941.32636    1533959.3    279.27899 
   83300    323.64269   -58492.135     -46664.7   -25278.453    955.97129    1533959.3    288.89873 
   83400    337.59463   -59153.502   -46816.197   -28269.772    829.03048    1533959.3    280.00929 
   83500    332.81556   -59650.781   -47488.126    -30168.33    774.19976    1533959.3    284.46431 
   83600    330.21418   -60262.226   -48194.637   -33533.049    655.37715    1533959.3    283.67262 
   83700    316.53264   -60217.186   -48649.586   -34059.401     652.1854    1533959.3    282.31677 
   83800    324.95426   -61095.491   -49220.125   -38139.984    495.28542    1533959.3     279.4999 
   83900    325.46492   -61515.854   -49621.826   -40245.316    419.13264    1533959.3    278.38627 
   84000    327.13644   -61968.507   -50013.394   -42675.697    327.99716    1533959.3    277.67745 
   84100    326.24141   -62162.685    -50240.28   -43564.416    298.41299    1533959.3    275.07078 
   84200    330.06884   -62751.277       -50689   -46115.707    204.42747    1533959.3    291.09787 
   84300    334.35042   -63479.236    -51260.49   -49903.813    60.643834    1533959.3    296.83008 
   84400    331.17732   -63886.753   -51783.966   -51364.469     18.75165    1533959.3    293.76259 
   84500    325.29385   -64113.082   -52225.305   -53749.532   -68.133367    1533959.3    294.99045 
   84600    323.44647    -64357.04   -52536.776   -54740.294   -98.497872    1533959.3    298.61794 
   84700    325.45928   -64666.687   -52772.865   -56374.444   -160.99157    1533959.3    292.79241 
   84800    324.99665   -64896.559   -53019.644   -56617.184   -160.81106    1533959.3    288.22176 
   84900    322.34481    -65066.71   -53286.705   -57455.733    -186.3567    1533959.3    290.64038 
   85000    325.01226   -65362.713   -53485.227   -59070.859   -249.67934    1533959.3    256.48059 
   85100    323.32084   -65540.798   -53725.125   -60214.664   -290.08427    1533959.3    282.45556 
   85200    325.39852   -65841.008   -53949.407   -61315.769   -329.27847    1533959.3     279.7469 
   85300    333.51457   -66380.856   -54192.655   -63617.368   -421.28732    1533959.3    290.26305 
   85400     326.1133   -66484.246   -54566.523   -64309.762   -435.52555    1533959.3    291.40002 
   85500    326.11325   -66737.068   -54819.347   -65398.307    -472.8825    1533959.3    291.79188 
   85600    323.53305   -66824.015   -55000.586   -65684.429    -477.5708    1533959.3    290.90485 
   85700    321.95282   -66936.786   -55171.107   -65640.589   -467.98879    1533959.3    290.22268 
   85800     322.4516   -67151.205   -55367.298   -67594.042   -546.53894    1533959.3    295.39308 
   85900    321.67523   -67281.662   -55526.127   -67861.979   -551.41609    1533959.3    283.38724 
   86000    326.16663   -67589.976   -55670.304   -69118.339     -601.131    1533959.3    288.88281 
   86100    323.22311   -67681.861   -55869.759   -69831.999   -624.11607    1533959.3    273.21804 
   86200    327.45251   -67957.566   -55990.902   -70919.498   -667.31244    1533959.3    252.60318 
   86300    325.82086   -68100.807   -56193.772   -71467.271   -682.72975    1533959.3    248.33679 
   86400    326.40643   -68289.648   -56361.212   -72673.302   -729.15502    1533959.3    241.00625 
   86500    326.98764   -68447.952   -56498.277   -72913.301   -733.75624    1533959.3    257.94736 
   86600    330.84642   -68731.453    -56640.76   -73671.285   -761.26932    1533959.3     244.9509 
   86700    331.19284   -68951.507   -56848.154   -75402.833   -829.39939    1533959.3    262.16989 
   86800    330.50153   -69180.495   -57102.405   -76226.982     -854.874    1533959.3    282.29207 
   86900    331.50904   -69445.445   -57330.536   -77297.888   -892.54626    1533959.3      278.426 
   87000    321.56226   -69421.342   -57669.936   -78120.194   -914.13233    1533959.3    269.17312 
   87100     318.3283   -69464.944   -57831.722    -77810.17   -893.04228    1533959.3    245.43135 
   87200     309.2738   -69270.765   -57968.437   -76996.895   -850.57744    1533959.3    265.26467 
   87300    311.72359   -69072.789   -57680.935   -76180.599   -826.94022    1533959.3    274.27914 
   87400    311.13311   -68733.527   -57363.251    -74784.05   -778.71462    1533959.3    284.39314 
   87500    309.58172   -68317.094   -57003.513   -72597.732     -697.066    1533959.3     290.5043 
   87600    305.47736   -67755.769   -56592.181   -69997.141   -599.20548    1533959.3    284.75574 
   87700    303.40791   -67168.572   -56080.612   -67232.817   -498.50673    1533959.3    290.89557 
   87800    304.37311   -66612.936   -55489.703   -63994.377   -380.16135    1533959.3    275.40546 
   87900    308.89016   -66143.924   -54855.616   -61533.754   -298.51466    1533959.3    267.84816 
   88000    313.25053   -65711.648   -54263.992   -58759.577    -200.9539    1533959.3    276.82343 
   88100     310.5345   -65034.404   -53686.004   -56080.231   -107.02258    1533959.3    286.90615 
   88200    311.72782   -64458.756   -53066.746   -52948.255    5.2966062    1533959.3    272.47365 
   88300     312.1253   -63779.416   -52372.881    -49718.57    118.64843    1533959.3    266.68159 
   88400    316.67808   -63295.071   -51722.156   -46216.496    246.10454    1533959.3    259.75378 
   88500      318.672   -62837.904   -51192.122    -44569.58    296.02951    1533959.3    262.40805 
   88600    313.62564   -62061.901   -50600.537   -40618.676    446.19201    1533959.3    241.25619 
   88700    319.10029   -61692.984   -50031.549   -38905.859    497.32152    1533959.3    256.94787 
   88800     316.5396   -60886.609   -49318.754   -35804.768    604.07903    1533959.3    273.01601 
   88900    315.05618   -60046.177   -48532.533   -31040.352    781.90544    1533959.3    276.69778 
   89000     318.3231   -59459.768   -47826.735   -28167.242    878.78494    1533959.3    267.12539 
   89100    320.96194   -58903.875   -47174.408   -26517.917    923.35099    1533959.3    291.40163 
   89200    331.24488   -58907.009   -46801.754   -25371.787    957.92561    1533959.3    291.44335 
   89300    329.73329   -58856.843   -46806.828   -25266.602    962.85419    1533959.3    287.60416 
   89400    335.65173   -59651.911   -47385.608   -28988.674    822.34819    1533959.3    278.50421 
   89500    331.72556   -60253.732   -48130.911   -32346.472    705.56889    1533959.3    281.06946 
   89600    329.64702   -60843.108   -48796.246   -35586.981    590.45786    1533959.3    259.89751 
   89700    323.38665   -61141.044   -49322.966    -37320.02    536.53512    1533959.3    261.13829 
   89800    327.86598   -61834.457   -49852.683   -40116.826    435.19556    1533959.3    275.56252 
   89900    330.20674     -62437.9   -50370.583   -43586.827    303.23581    1533959.3    280.99282 
   90000    325.43147   -62735.979   -50843.173   -45121.544    255.75843    1533959.3    286.75884 
   90100    330.05156   -63432.065    -51370.42   -49168.454    98.428495    1533959.3    281.23776 
   90200    330.61255   -63914.523   -51832.376   -50684.589    51.306375    1533959.3    294.34704 
   90300    323.43946   -64078.976   -52258.968   -51927.223    14.829093    1533959.3    297.96498 
   90400    320.80434   -64381.022   -52657.314   -53347.834   -30.866442    1533959.3     297.7414 
   90500    325.06114   -64802.521   -52923.249   -55671.683   -122.85575    1533959.3    295.34149 
   90600    326.09149   -65120.003   -53203.077   -56687.452   -155.75253    1533959.3    294.01381 
   90700     322.0082   -65275.583    -53507.88    -57737.12   -189.04823    1533959.3    289.73511 
   90800    325.95516   -65735.675   -53823.732   -59974.063   -274.92155    1533959.3    287.79282 
   90900    328.23183   -66113.275   -54118.131   -61585.702   -333.80252    1533959.3    297.21395 
   91000    325.10726   -66313.732   -54432.774   -62756.095   -372.05478    1533959.3    292.56286 
   91100    326.48421   -66620.646   -54689.369    -64673.81   -446.30737    1533959.3    286.74316 
   91200    323.76269   -66764.859   -54933.039   -65061.283   -452.73539    1533959.3    297.30053 
   91300    301.99326   -66188.128   -55151.865   -62936.526   -347.97655    1533959.3    298.79217 
   91400    302.86737   -65770.669   -54702.463   -60524.535   -260.24828    1533959.3    299.68369 
   91500    307.45786   -65369.489   -54133.525   -58398.526   -190.64675    1533959.3    296.79311 
   91600    308.48428   -64808.305    -53534.83   -55614.508   -92.962163    1533959.3    218.24532 
   91700    306.09284   -64058.683   -52872.603   -51288.124    70.826621    1533959.3    287.82619 
   91800    314.03925   -63715.252   -52238.772   -49983.172    100.82596    1533959.3    284.46663 
   91900    311.04388   -62908.926   -51541.911   -45792.879    256.98335    1533959.3    281.13898 
   92000    312.74271   -62292.315   -50863.217    -42356.28    380.26248    1533959.3    274.18519 
   92100    311.79731   -61481.611   -50087.062   -39072.747      492.343    1533959.3     214.2429 
   92200    311.11527   -60612.331   -49242.707   -34748.041    647.91569    1533959.3    292.68596 
   92300    312.01744   -59766.036   -48363.442   -30122.365    815.38132    1533959.3    291.84304 
   92400    313.25941   -58944.448   -47496.467   -26497.011    938.68163    1533959.3    285.04409 
   92500    326.63946   -58913.182   -46976.231   -25746.704    948.96587    1533959.3    268.75573 
   92600     324.3382   -58300.909   -46448.057   -22788.962    1057.5682    1533959.3    230.82482 
   92700     339.1563   -59298.459   -46904.083   -27272.542    877.53544    1533959.3    288.00842 
   92800    332.69701   -59813.486   -47655.163   -30524.685    765.73724    1533959.3     272.5071 
   92900    328.05222   -60339.197   -48350.617   -33145.143    679.68901    1533959.3    282.54974 
   93000    327.54831   -60900.155    -48929.99   -36140.871    571.67722    1533959.3    282.10657 
   93100     326.3245   -61400.334   -49474.893   -38842.714    475.26138    1533959.3    230.45981 
   93200    327.85569   -61970.939   -49989.541   -41837.741    364.38777    1533959.3      288.158 
   93300    326.27447   -62327.243    -50403.63   -43278.669    318.48779    1533959.3    287.62901 
   93400    328.10539   -62838.441   -50847.917   -45987.483    217.26281    1533959.3     288.9447 
   93500     328.8232   -63307.286    -51290.53   -48395.094    129.42683    1533959.3    290.72721 
   93600    328.92614   -63776.739   -51756.222   -49998.116    78.587842    1533959.3    291.99136 
   93700    328.71556   -64152.168   -52139.346   -52319.663   -8.0602308    1533959.3    292.21554 
   93800    324.57333   -64358.713   -52497.268   -53132.257   -28.384182    1533959.3    287.72589 
   93900    327.33383   -64779.431   -52817.104   -55286.931   -110.40198    1533959.3    289.37111 
   94000    327.17011   -65098.133   -53141.789   -56549.838   -152.34073    1533959.3    291.11241 
   94100    325.95092    -65370.69   -53458.901   -57549.492   -182.85058    1533959.3    249.46554 
   94200     329.4714   -65772.005   -53731.561    -59772.82   -270.04598    1533959.3    298.58414 
   94300    325.59198   -65941.749   -54043.078   -60414.312   -284.79596    1533959.3    302.08818 
   94400    327.02426   -66245.731   -54294.717   -62510.189   -367.23391    1533959.3     300.5532 
   94500    326.54606   -66488.549   -54555.011   -63013.602   -378.10142    1533959.3    303.17625 
   94600    326.93018   -66712.942   -54765.367   -64391.696   -430.29967    1533959.3    233.91264 
   94700    326.49655   -66902.798    -54971.07   -65281.014   -460.85741    1533959.3    301.36192 
   94800    325.19855   -67084.808   -55200.514   -66638.306   -511.27253    1533959.3    302.05815 
   94900    335.06649   -67635.583   -55390.668   -68705.353   -595.17019    1533959.3    294.36005 
   95000    326.70433   -67729.019   -55789.697   -69682.851   -621.02793    1533959.3    292.97771 
   95100    326.98909   -68027.601   -56077.873   -70667.875   -652.17722    1533959.3    227.00958 
   95200    322.94469   -68142.931   -56341.004   -71872.868   -694.27873    1533959.3    291.76123 
   95300    326.13774   -68440.357   -56521.741   -72639.175   -720.45386    1533959.3    299.69996 
   95400    325.22954   -68628.225   -56742.799   -73388.205   -744.05437    1533959.3    299.80708 
   95500    331.78504    -69003.71   -56878.715    -74951.31   -807.85011    1533959.3    297.83697 
   95600    331.61563   -69267.951   -57149.147   -76187.521   -851.02069    1533959.3    303.61188 
   95700    326.57459   -69396.694   -57462.113   -77446.496   -893.30755    1533959.3    290.73729 
   95800    323.78789   -69522.781    -57690.04   -77823.803   -899.98491    1533959.3     290.2016 
   95900    322.19925   -69612.325    -57837.64   -78159.309   -908.38434    1533959.3    291.60403 
   96000    306.70313   -69215.704    -58007.32   -76801.022    -840.0838    1533959.3    289.05741 
   96100    310.95753   -69002.269   -57638.409    -75326.53   -790.66399    1533959.3     237.4806 
   96200    311.50472   -68675.614   -57291.757   -73199.987   -711.10236    1533959.3     271.2239 
   96300     310.9933   -68271.324   -56906.158   -71581.423    -655.9885    1533959.3    277.56352 
   96400    315.38296   -67959.975    -56434.39   -69619.004   -589.35598    1533959.3    301.94964 
   96500    315.36437   -67554.203   -56029.297   -67511.864   -513.27397    1533959.3    290.26988 
   96600    316.80668   -67192.379   -55614.764   -65979.766   -463.31854    1533959.3    303.36308 
   96700    309.34193    -66524.46   -55219.642   -62879.125   -342.38105    1533959.3     294.0338 
   96800    309.79022   -66017.206   -54696.006    -59871.64   -231.35234    1533959.3    271.35041 
   96900    310.66077    -65493.24   -54140.225   -57748.284   -161.28124    1533959.3    256.10489 
   97000    311.96481   -64982.007   -53581.337    -55164.02   -70.746383    1533959.3    286.71297 
   97100    312.59663   -64433.265   -53009.505    -52132.34    39.209531    1533959.3    245.03676 
   97200    310.38729   -63722.075   -52379.055   -48771.087    161.27721    1533959.3    259.26951 
   97300    314.21247   -63238.728   -51755.918   -46748.358    223.83933    1533959.3    277.79018 
   97400     318.0045   -62754.267   -51132.878   -43745.658     330.2108    1533959.3    274.30694 
   97500    313.84637   -61914.727   -50445.295   -39936.302    469.75497    1533959.3     291.2337 
   97600    313.91015   -61199.254   -49727.492   -36650.868     584.5288    1533959.3    289.95243 
   97700    315.35408   -60502.212   -48977.682   -32529.133    735.25478    1533959.3    289.76614 
   97800    318.69176   -59893.189   -48246.685   -29429.286    841.14305    1533959.3    277.41335 
   97900    319.27193   -59187.531   -47519.824   -27095.212    912.98596    1533959.3     286.9727 
   98000    322.92435   -58973.444   -47172.261   -26238.647    935.73846    1533959.3    287.06521 
   98100    333.48577   -59181.171   -46994.024   -26499.099    916.12894    1533959.3    278.46852 
   98200    337.25465   -59760.128   -47435.247   -28705.734    837.21456    1533959.3    284.46837 
   98300    332.25633   -60311.737   -48169.519   -32141.492    716.45736    1533959.3    281.39606 
   98400    327.64366   -60777.755   -48804.105   -34934.322    619.98325    1533959.3     292.2976 
   98500    327.26067   -61201.732   -49242.078   -37588.201    520.93162    1533959.3     291.8924 
   98600    328.48302   -61793.558   -49789.235   -39584.292    456.16382    1533959.3    209.67442 
   98700    325.53843   -62211.846   -50315.131   -42222.755    361.73151    1533959.3    290.21766 
   98800    332.41828   -63025.427    -50877.29   -45085.403    258.89899    1533959.3    287.64479 
   98900    322.99936   -63131.805    -51327.88   -47226.031    183.35379    1533959.3    289.85004 
   99000    327.30121   -63693.343   -51732.208   -48797.716    131.17264    1533959.3    283.44737 
   99100    324.73663   -63989.319   -52121.906   -51444.221    30.292681    1533959.3    148.59902 
   99200    323.95079   -64300.309   -52461.614    -53173.04   -31.800937    1533959.3    273.78142 
   99300    325.16552   -64661.656   -52778.569   -54716.115   -86.608822    1533959.3     289.2823 
   99400    323.05435    -64859.18   -53053.246   -55163.978   -94.350337    1533959.3     274.1859 
   99500    325.96891   -65244.305   -53331.859   -57356.758   -179.91412    1533959.3    294.65763 
   99600    326.98283   -65586.343   -53636.843   -59151.525   -246.50785    1533959.3    298.47811 
   99700    326.48411   -65870.723   -53939.449    -60536.64   -294.89631    1533959.3     293.5124 
   99800    330.71535   -66309.298   -54223.395   -62250.323   -358.80597    1533959.3    289.08172 
   99900    329.10422    -66580.06   -54553.035   -63414.088   -396.09157    1533959.3    282.14319 
  100000    325.93132   -66792.084   -54881.012   -64657.563    -437.0146    1533959.3      253.228 
  100100     326.1431    -67070.26   -55151.448   -65838.272   -477.70406    1533959.3    238.92348 
  100200    323.04432   -67243.423   -55437.855   -66498.505   -494.41417    1533959.3    280.72313 
  100300    328.27529   -67615.125   -55618.393   -68286.354   -566.26145    1533959.3    270.87043 
  100400    323.04757    -67712.72   -55907.033   -69049.255   -587.46101    1533959.3    289.87608 
  100500    311.69986   -67530.856   -56139.868   -68793.952   -565.64113    1533959.3    298.36686 
  100600    308.74014   -67112.597   -55829.772   -66845.289   -492.39675    1533959.3    286.21563 
  100700    307.03351   -66573.841   -55353.384   -64153.972   -393.38878    1533959.3    288.78018 
  100800    308.89321   -66091.537   -54803.117   -61272.175    -289.1687    1533959.3    281.33189 
  100900    310.57134    -65591.22   -54241.474   -58923.981   -209.30936    1533959.3    281.36605 
  101000    307.00318   -64831.895   -53612.546   -55451.924   -82.220704    1533959.3    278.85917 
  101100    304.32609   -64011.059   -52889.544   -51531.613    60.699915    1533959.3     223.2471 
  101200    310.28543   -63485.894   -52146.597   -47932.028    188.39241    1533959.3    275.55274 
  101300    312.71597   -62853.647   -51425.526   -44461.695    311.28523    1533959.3    277.12265 
  101400    314.79265   -62201.813   -50697.801   -41795.932    397.91605    1533959.3    263.26749 
  101500    315.37554   -61454.768   -49929.453   -38052.531     530.9018    1533959.3    282.02841 
  101600    314.21814   -60596.436   -49113.418   -33363.432    704.02885    1533959.3    258.86898 
  101700    324.24638   -60402.643   -48553.146   -32585.135    713.77462    1533959.3    285.86372 
  101800    317.88292   -59372.595   -47755.649   -27081.641    924.13402    1533959.3    285.65132 
  101900    318.57492   -58806.819   -47164.584   -25406.556    972.59004    1533959.3    277.82643 
  102000    324.11486   -58588.468   -46743.778   -23207.138    1052.0945    1533959.3    286.89889 
  102100    338.56748   -59029.465   -46656.607    -26854.23    885.17189    1533959.3    282.98534 
  102200    336.50732    -59386.14   -47088.571   -27184.757    889.70611    1533959.3    284.04012 
  102300    337.00609   -60244.874   -47929.078   -31932.991    715.02959    1533959.3    289.41224 
  102400    327.92039   -60576.196   -48592.433   -34455.084    631.94351    1533959.3    289.77935 
  102500    326.73479   -61128.568   -49188.133   -37127.821    539.09934    1533959.3     288.2909 
  102600    326.60027   -61668.627   -49733.108   -39925.152    438.41841    1533959.3    242.69545 
  102700    323.86297   -62056.452   -50220.966   -42103.453    362.85515    1533959.3     277.9229 
  102800    326.88762   -62671.383   -50725.363   -44818.133    264.05484    1533959.3    289.61488 
  102900    324.88416   -63015.984   -51143.179   -46404.822     211.8059    1533959.3    283.13147 
  103000     322.5799   -63283.368   -51494.772   -48183.103    148.03258    1533959.3    283.50849 
  103100    324.63769   -63733.502   -51869.705   -50055.226    81.107726    1533959.3    239.06347 
  103200     325.5728   -64118.302   -52220.332   -51928.076    13.063905    1533959.3    257.73258 
  103300    323.83993    -64373.74   -52539.097   -53754.896   -54.346535    1533959.3    270.57233 
  103400    328.14272   -64811.459   -52819.572    -55084.29   -101.23355    1533959.3    272.69065 
  103500    327.75745   -65081.838    -53104.03   -56058.869   -132.08215    1533959.3    295.15403 
  103600    320.74032   -65136.035   -53414.667   -57195.191   -168.99053    1533959.3    280.46634 
  103700    328.06924   -65589.427   -53600.225   -59329.423   -256.09679    1533959.3    276.72626 
  103800    320.53655   -65610.051   -53896.128   -59530.576   -251.86142    1533959.3    278.44615 
  103900    327.87331   -66129.302    -54147.26   -61493.176   -328.36453    1533959.3    285.47362 
  104000    327.11908   -66364.281   -54409.803   -62376.511   -356.11411    1533959.3    277.79478 
  104100    324.77499   -66562.523   -54693.708   -63779.881   -406.15448    1533959.3    239.46009 
  104200    324.77146    -66795.78   -54927.094   -64718.534   -437.68011    1533959.3    287.91312 
  104300    306.68621    -66330.92   -55123.155   -63638.992   -380.66031    1533959.3    286.89889 
  104400    303.80052   -65791.381   -54689.072   -60667.495    -267.2372    1533959.3    283.49086 
  104500    311.81665   -65540.298   -54145.042   -59184.904   -225.28324    1533959.3    287.53633 
  104600    305.42484   -64671.841   -53510.172   -54682.701   -52.412411    1533959.3    230.36488 
  104700     308.4487   -64079.006   -52806.832   -51846.376     42.93265    1533959.3     289.8174 
  104800    311.32433   -63446.835   -52069.571   -48725.695     149.4722    1533959.3    289.60488 
  104900    311.40043   -62680.113   -51300.068   -44753.384    292.63863    1533959.3    282.46259 
  105000    312.10774   -61936.674    -50530.78   -40451.975    450.52544    1533959.3    278.56784 
  105100    313.50264   -61210.654   -49753.784   -36946.978    572.46786    1533959.3    263.25147 
  105200    312.21188   -60337.082   -48927.383   -33255.937    700.51809    1533959.3     294.9836 
  105300    321.41007   -59977.223   -48231.378   -30638.421    786.41016    1533959.3    289.91896 
  105400    317.57954   -59021.206   -47415.347   -26202.258    948.23108    1533959.3    295.27953 
  105500    320.77531   -58677.205   -46954.558   -25580.628    955.42069    1533959.3    294.98008 
  105600    326.92118   -58738.083   -46790.837   -25074.353    970.73298    1533959.3    286.23692 
  105700    336.48067   -59400.022   -47103.427   -27825.305    861.73748    1533959.3    285.55836 
  105800    332.95416   -59979.029   -47811.309   -31193.188     742.8347    1533959.3    287.96531 
  105900    326.95998   -60442.432   -48493.767   -33319.811    678.28013    1533959.3    290.55501 
  106000    327.98396   -61117.708   -49131.623   -37004.333     542.0933    1533959.3    252.35697 
  106100    325.97878   -61549.026   -49636.219   -39733.798    442.64102    1533959.3    284.46509 
  106200    327.79539   -62166.675   -50187.481   -41301.953    397.18562    1533959.3    298.52634 
  106300    327.35914   -62571.346   -50608.094   -44590.227    269.00036    1533959.3    293.57445 
  106400    328.03122   -62939.591   -50951.779    -46036.58    219.71078    1533959.3     294.5794 
  106500    306.28755   -62186.991   -50993.795   -42537.624    377.99324    1533959.3    296.55808 
  106600    303.42139   -61488.069   -50399.616   -39618.495    481.91916    1533959.3    262.89638 
  106700    312.68553   -61111.615   -49684.606    -37564.35     541.7789    1533959.3    285.26781 
  106800     312.8272   -60281.622   -48849.436   -33137.883    702.31084    1533959.3    288.16276 
  106900     316.3653   -59691.883   -48130.398   -29432.766    835.78946    1533959.3    288.73028 
  107000    329.44291   -59690.072   -47650.669    -29165.17    826.30707    1533959.3    280.47891 
  107100    328.63466   -59092.372   -47082.507   -26961.313    899.42305    1533959.3    276.60381 
  107200    331.78232    -58870.13   -46745.235   -25424.468     953.0443    1533959.3    282.97427 
  107300    336.34291   -59059.006   -46767.445   -25953.798    930.37591    1533959.3    292.86437 
  107400    335.42598   -59775.987   -47517.934   -30537.312    759.03865    1533959.3    289.36851 
  107500    330.92017   -60346.718    -48253.33   -33367.605    665.39609    1533959.3    282.00718 
  107600    326.74281   -60829.823   -48889.094   -36152.131    569.34585    1533959.3    270.79873 
  107700    319.85767   -61042.646   -49353.534   -36888.691      557.182    1533959.3    281.55852 
  107800    325.65412   -61793.276   -49892.334   -40696.113    411.07366    1533959.3    289.34596 
  107900    324.00146   -62146.457    -50305.91   -42689.083    340.47431    1533959.3    291.66587 
  108000    330.65064   -62815.838   -50732.299   -45060.491    253.53144    1533959.3    287.54639 
  108100    330.71255   -63372.861    -51287.06   -48385.901    129.68264    1533959.3    238.84756 
  108200    322.68008   -63515.549   -51723.292    -50077.97    73.546368    1533959.3    295.96587 
  108300     326.5249   -64002.764       -52070   -52675.794   -27.079189    1533959.3    290.73991 
  108400    318.63919   -63952.038   -52307.454   -51953.908    15.803635    1533959.3    294.30965 
  108500    307.13377   -63705.139   -52481.018   -51474.254     45.00264    1533959.3    288.66531 
  108600    305.67454   -63089.401   -51918.607   -48366.035      158.801    1533959.3    236.96017 
  108700    311.28395   -62633.069   -51257.281   -45417.933    261.02048    1533959.3    293.58822 
  108800    311.05095   -61949.934    -50582.66   -42554.689    358.85257    1533959.3     290.7518 
  108900    309.40176   -61102.857   -49795.853   -38110.901    522.32066    1533959.3    287.08407 
  109000    311.38201   -60391.117   -49011.745   -33955.042    673.03886    1533959.3    280.37916 
  109100    316.14321   -59816.491   -48263.123    -31535.34    747.73664    1533959.3    268.98634 
  109200    321.32142   -59330.463   -47587.859   -29462.582    810.20501    1533959.3    292.31227 
  109300    322.51201   -58707.665    -46921.55   -25216.162    970.23697    1533959.3    293.57609 
  109400    335.73406    -59027.55   -46758.239   -26881.888    888.47851    1533959.3    288.43801 
  109500    336.46721   -59701.578   -47405.474   -29779.771    787.87392    1533959.3    284.57838 
  109600    319.37885   -59478.624    -47807.01   -28951.879    842.82966    1533959.3    174.95213 
  109700    323.45096   -60162.649    -48342.22   -32791.251    695.13271    1533959.3     285.7568 
  109800    327.05546   -60506.091   -48553.937   -34237.159    639.96402    1533959.3    285.13264 
  109900    306.42746   -59122.388   -47924.079   -27967.031    892.08568    1533959.3    285.58772 
  110000    316.92048    -58849.04   -47267.266   -26239.236    939.95889    1533959.3     279.6749 
  110100    322.81372   -58485.502   -46688.361   -24393.229    996.59872    1533959.3    208.45499 
  110200    336.15119   -58916.751   -46632.196   -26165.617    914.86186    1533959.3    273.74676 
  110300    333.43159   -59294.007   -47108.839   -28505.143    831.59049    1533959.3    289.05243 
  110400    326.59788   -59713.497   -47778.065    -31034.05     748.4622    1533959.3    286.43376 
  110500    330.45432   -60542.997   -48466.632   -34535.384    622.73074    1533959.3    282.19881 
  110600    329.43463   -61134.968   -49095.868   -37947.742    498.32438    1533959.3    280.17651 
  110700    324.41291   -61456.318   -49600.736   -39656.873    444.49347    1533959.3    276.56077 
  110800    326.24215   -62027.855   -50105.423   -41942.182    364.89919    1533959.3    282.31677 
  110900    322.83601   -62354.442   -50556.487   -43453.873    317.48882    1533959.3    286.75825 
  111000    330.38445   -63067.941    -50994.13   -47691.257    147.63935    1533959.3    273.48544 
  111100    329.64922   -63545.142     -51498.2   -49120.624    106.27835    1533959.3    272.36306 
  111200    318.85022   -63561.892   -51909.597   -49982.606    86.137027    1533959.3    276.99527 
  111300    324.54475   -64062.152   -52201.751    -52369.62    -7.503811    1533959.3    297.16088 
  111400    325.34068   -64328.015   -52438.527   -53633.897   -53.433373    1533959.3    297.12657 
  111500    325.38333    -64579.03   -52687.984   -54353.249   -74.437812    1533959.3    297.59078 
  111600    318.21138   -64533.064   -52904.115   -54664.399   -78.685209    1533959.3    292.09689 
  111700    329.26742   -65140.525   -53107.536   -56709.638   -161.01499    1533959.3    289.14529 
  111800    327.02615   -65378.975   -53427.892   -58198.156   -213.23213    1533959.3    295.83603 
  111900    324.51956   -65571.473   -53711.993    -59797.94   -272.04356    1533959.3     298.3329 
  112000    315.57369   -65520.618   -53988.062   -59325.339   -238.57778    1533959.3    292.40377 
  112100    324.21758   -65974.937   -54126.493   -61634.356   -335.60362    1533959.3    291.19447 
  112200    334.87243   -66562.328   -54324.505   -63870.261     -426.698    1533959.3    296.72445 
  112300    332.03684   -66848.752   -54714.555   -64902.939   -455.42368    1533959.3    302.48599 
  112400     327.3373   -67050.919   -55088.466   -66104.479   -492.41891    1533959.3    294.42576 
  112500     329.4052   -67409.976   -55371.951   -67986.608   -563.87874    1533959.3    293.62973 
  112600    325.13498    -67566.07     -55684.1   -68603.266   -577.49036    1533959.3    245.01157 
  112700    327.94898    -67881.93   -55897.122   -69714.231   -617.62866    1533959.3     298.9992 
  112800    322.84573   -67978.781   -56180.471   -70401.756   -635.69547    1533959.3    292.47738 
  112900    329.86961   -68326.703   -56271.707   -72335.095   -718.03801    1533959.3    294.91122 
  113000    324.70546    -68422.14   -56555.866   -72622.167    -718.1682    1533959.3    283.56964 
  113100    327.88668   -68720.861    -56738.33   -73485.031   -748.58229    1533959.3    283.40179 
  113200    327.82608   -68943.398   -56963.082   -74623.133   -789.40924    1533959.3    274.63851 
  113300    326.93127   -69170.956   -57223.341    -75653.99    -823.8552    1533959.3    281.35812 
  113400    319.82692       -69225   -57537.012   -76673.022   -855.38508    1533959.3    294.06823 
  113500    324.62442   -69507.623    -57644.31   -77512.712   -888.12316    1533959.3    272.00891 
  113600    318.22362   -69475.863   -57846.466   -77640.185   -884.78484    1533959.3      288.847 
  113700     303.2684   -68986.291   -57903.429   -76250.042   -820.09879    1533959.3    272.80008 
  113800    313.21028   -68905.746   -57459.561   -75117.813   -789.32887    1533959.3    265.75377 
  113900    310.82974   -68468.147   -57108.958   -73629.264   -738.46235    1533959.3    301.91682 
  114000    308.30603   -67951.109   -56684.148   -70430.212   -614.45292    1533959.3    298.89118 
  114100    310.37052   -67532.635   -56190.228   -68931.931   -569.55774    1533959.3    246.67791 
  114200    310.70978   -67051.258   -55696.453   -65627.135   -443.90428    1533959.3    277.30936 
  114300    317.67668   -66786.291   -55176.882   -63591.482   -376.13497    1533959.3    268.63523 
  114400    320.10674   -66451.934   -54753.719   -61891.792   -319.07391    1533959.3    264.27771 
  114500    321.37177   -66144.425    -54399.98   -60178.248   -258.29019    1533959.3    282.09139 
  114600    309.83764   -65351.785   -54028.851    -56965.35   -131.26232    1533959.3    283.01035 
  114700    314.33223    -64949.52   -53462.333   -54878.699   -63.311957    1533959.3    282.37417 
  114800    306.32815   -64032.566   -52837.887   -50417.082    108.21066    1533959.3    290.94299 
  114900    309.49468   -63460.948   -52150.548   -47966.862    187.01195    1533959.3    287.21519 
  115000    314.27673   -62956.244   -51471.086   -44444.148     314.1061    1533959.3    286.36786 
  115100    321.66451   -62685.945   -50930.802   -42782.138    364.24759    1533959.3    276.37289 
  115200    316.18009   -61821.087   -50266.371   -39172.167    495.91405    1533959.3    291.52052 
  115300    317.72403   -61204.897   -49593.758    -35874.04    613.27528    1533959.3    294.27703 
  115400    318.49175   -60580.809   -48941.614   -33248.016    701.50828    1533959.3    286.50987 
  115500    317.65236   -59942.642   -48334.122   -30181.288    811.43681    1533959.3    268.51055 
  115600    328.36814   -60392.436    -48392.31   -31629.346    749.30927    1533959.3    290.37599 
  115700    333.45304   -61208.369   -49022.417   -36069.892    578.98152    1533959.3    285.28954 
  115800    326.35081   -61573.907   -49647.504   -37467.689    544.44119    1533959.3    283.91361 
  115900     328.2647   -62262.229   -50265.884   -41460.468    393.60455    1533959.3    284.91881 
  116000    325.91658   -62710.413   -50799.879   -43527.182    325.09164    1533959.3    270.26008 
  116100    327.35597   -63266.688   -51303.552   -46650.871    207.97617    1533959.3    265.96239 
  116200    327.62797   -63697.076       -51724    -48932.47    124.78215    1533959.3    300.95734 
  116300     329.5871   -64200.192    -52155.52   -51583.109    25.586905    1533959.3    299.20695 
  116400    331.38172   -64658.293   -52548.037   -53499.234   -42.518757    1533959.3    298.83645 
  116500    320.06887   -64628.128   -52931.297   -53595.061    -29.67044    1533959.3    295.77573 
  116600    325.86012   -65162.638   -53254.168    -56271.61   -134.88052    1533959.3    247.26411 
  116700    327.71385    -65511.16   -53534.945   -58207.595   -208.86877    1533959.3    292.52511 
  116800    330.89116   -65889.263   -53796.935   -59157.906   -239.63695    1533959.3    287.30097 
  116900    325.07381   -66037.296   -54157.561   -59802.134     -252.314    1533959.3    297.65984 
  117000    334.52484   -66696.237   -54471.116   -62733.094   -369.31276    1533959.3    288.41639 
  117100    333.46114   -67039.696   -54853.449   -64600.591   -435.70001    1533959.3      244.644 
  117200    327.31097   -67255.577   -55294.085   -65727.949   -466.39665    1533959.3    284.35593 
  117300    327.31912    -67612.25    -55650.46    -68303.68    -565.6025    1533959.3    288.02839 
  117400    329.15354   -67985.094   -55956.267   -69921.339   -624.24267    1533959.3    296.66023 
  117500    329.13486   -68313.359   -56285.214   -70956.146   -655.79485    1533959.3    298.92867 
  117600    331.33862   -68638.726   -56530.045   -72752.344   -725.14135    1533959.3    256.18294 
  117700    333.54832   -69023.503   -56834.069   -74274.705   -779.60134    1533959.3    300.73292 
  117800    331.29707   -69303.665   -57196.503   -76128.767   -846.27759    1533959.3    295.64897 
  117900    326.40231   -69476.092   -57547.808   -76986.403   -868.91073    1533959.3    296.57821 
  118000    322.74251   -69608.319   -57813.781   -77981.709    -901.5121    1533959.3    297.93302 
  118100     320.9769   -69668.807   -57938.792   -77994.085   -896.47725    1533959.3    229.83747 
  118200    324.00947   -69755.761   -57914.922   -78165.655    -905.2135    1533959.3    237.50212 
  118300    321.77162   -69665.643   -57906.586   -77068.393   -856.53818    1533959.3    252.09744 
  118400    311.30405   -69240.935   -57864.413   -75562.134   -791.09315    1533959.3    282.00945 
  118500    308.11516   -68826.353   -57566.368   -74070.546   -737.74143    1533959.3    272.88332 
  118600    317.34098   -68723.985   -57126.844   -73128.987   -715.30032    1533959.3    289.12596 
  118700    319.92854   -68512.581   -56820.878   -71485.547   -655.51487    1533959.3    289.53611 
  118800    319.06289   -68172.475   -56512.407   -70248.148   -613.99149    1533959.3     291.8201 
  118900    314.02967   -67690.397   -56214.267   -68272.706    -539.0156    1533959.3    275.82165 
  119000    311.55237   -67268.858    -55883.26   -65781.111   -442.43674    1533959.3    279.20109 
  119100    318.60154   -67114.716   -55471.508    -65012.64   -426.49131    1533959.3    281.77017 
  119200    316.85439   -66756.255   -55176.896   -63363.874   -365.96022    1533959.3    269.30948 
  119300    322.18558   -66587.476   -54813.291   -62055.958   -323.74927    1533959.3    295.53461 
  119400    316.82062   -66113.912   -54535.787    -59722.97   -231.86852    1533959.3    276.81046 
  119500    313.11613    -65613.52   -54170.775    -57627.52   -154.51746    1533959.3    290.68752 
  119600    312.11482   -65107.474   -53701.322   -55227.098   -68.202617    1533959.3    248.38796 
  119700    314.56096   -64650.251   -53154.705   -53162.127  -0.33174384    1533959.3    290.94198 
  119800     315.5013    -64143.29    -52613.38   -49752.152     127.8977    1533959.3    295.79597 
  119900    315.89193   -63620.945    -52076.76   -47354.159    211.10157    1533959.3    278.00708 
  120000    314.30323   -63000.747    -51514.62   -44220.256    326.06014    1533959.3    279.25482 
  120100    313.69133   -62395.183   -50931.418   -41588.951    417.61092    1533959.3    229.81845 
  120200    316.42959   -61873.278   -50309.443    -37817.03    558.41443    1533959.3    284.79886 
  120300    313.89661   -61103.931   -49632.664   -35231.867    643.71969    1533959.3    265.82383 
  120400    321.28161   -60788.776   -49047.626   -33885.482    677.75214    1533959.3    280.60406 
  120500    317.32625   -59949.369   -48352.767   -29996.397     820.5349    1533959.3    275.14711 
  120600    316.51529   -59299.863   -47732.897   -27437.535    907.20841    1533959.3    278.69815 
  120700    321.91412   -59029.841   -47265.576   -26265.894    938.69174    1533959.3    285.64665 
  120800    324.87414   -58832.428    -46959.99   -24470.974    1005.2654    1533959.3    282.43882 
  120900    317.89741   -58360.535    -46743.06    -23473.83    1040.1412    1533959.3    283.39605 
  121000    331.94316   -59197.049   -47066.276   -27164.675    889.60717    1533959.3    277.44877 
  121100      335.347   -60045.545   -47790.379   -30370.404    778.67782    1533959.3    276.78214 
  121200    331.95636   -60609.962   -48478.706   -33632.057    663.64938    1533959.3     286.6438 
  121300    317.89669   -60532.368   -48914.918   -33271.369    699.27109    1533959.3     291.4636 
  121400      325.323   -61368.332    -49479.49   -38121.267    507.71578    1533959.3      293.565 
  121500    328.92507   -61975.578     -49955.1   -40750.223     411.4606    1533959.3    295.32319 
  121600    329.78748   -62484.416   -50432.421   -43502.072    309.78856    1533959.3    295.17334 
  121700    326.04809   -62688.712   -50773.373   -45201.297    249.07338    1533959.3    293.21652 
  121800     330.8694   -63290.835   -51199.302   -48310.743    129.11939    1533959.3     285.4167 
  121900    327.67825     -63605.5   -51630.587   -48944.699    120.05994    1533959.3    287.33148 
  122000    331.44481   -64183.709   -52071.147   -52371.582    -13.42952    1533959.3    273.59408 
  122100    329.49536   -64523.192   -52481.873   -53557.059   -48.061136    1533959.3    265.41743 
  122200    330.40284   -64868.266   -52793.783   -55389.616   -116.03449    1533959.3     294.1402 
  122300    332.27983   -65265.837    -53122.76   -57753.181   -206.98111    1533959.3    292.71252 
  122400    329.89881    -65619.46   -53563.396   -59550.898   -267.64304    1533959.3     288.5005 
  122500    326.06377   -65915.641   -53999.728   -60487.318   -289.99709    1533959.3    279.07625 
  122600    329.62992    -66376.78   -54330.543    -63651.79   -416.66239    1533959.3    282.28238 
  122700    331.84389    -66802.78   -54675.634   -65059.091   -464.14346    1533959.3    282.98324 
  122800    326.11866   -66991.645   -55073.726    -65686.78   -474.40651    1533959.3    276.63044 
  122900    327.65513   -67339.603   -55365.534   -67802.959    -555.9564    1533959.3    292.34304 
  123000    322.27968   -67474.843   -55697.219   -68161.147   -557.14112    1533959.3    291.19952 
  123100    325.94425   -67808.648   -55897.103   -69554.572   -610.49276    1533959.3     242.1367 
  123200    325.72632   -68020.796   -56117.215   -71006.777   -665.56763    1533959.3    280.16304 
  123300    326.46386   -68252.075   -56321.541   -71735.189   -688.99445    1533959.3    274.63167 
  123400    326.81013   -68490.713   -56547.525   -72528.498   -714.35401    1533959.3    291.93425 
  123500    326.39981   -68675.035   -56746.842   -73878.604   -765.79461    1533959.3    272.12574 
  123600    327.12271   -68907.959   -56953.348   -74499.387   -784.31292    1533959.3    237.07817 
  123700     328.9566   -69177.331   -57155.701   -75713.638   -829.54505    1533959.3    244.99167 
  123800    327.21614   -69336.379   -57378.353    -76634.18   -860.74091    1533959.3    283.88036 
  123900    322.98465   -69441.197    -57637.81   -76822.752   -857.57234    1533959.3    287.51012 
  124000    320.31943   -69518.517    -57812.53   -77321.529   -872.05781    1533959.3    286.90851 
  124100    325.12466   -69686.552   -57804.959   -78014.697     -903.381    1533959.3    271.44788 
  124200    305.48079   -69012.716   -57849.002   -75868.132   -805.46021    1533959.3    298.52251 
  124300    311.63137   -68823.508   -57435.024   -74461.084   -761.06972    1533959.3    288.48622 
  124400    307.43369   -68301.517   -57066.436   -72055.848   -670.03098    1533959.3    298.90183 
  124500    310.92156   -67953.937   -56591.392   -69864.738   -593.32232    1533959.3     286.3444 
  124600    310.02107   -67465.384   -56135.748   -67384.215   -502.80966    1533959.3    275.15144 
  124700    309.78351   -66968.325    -55647.37       -65725    -450.4729    1533959.3    278.02275 
  124800    315.90655   -66691.386   -55146.666   -62656.835   -335.70668    1533959.3    280.07586 
  124900    321.38577   -66445.814   -54700.857    -61966.52   -324.77718    1533959.3     290.4697 
  125000    317.61483   -65937.754   -54330.605   -59110.905   -213.68077    1533959.3    288.97058 
  125100     324.7767   -65803.084   -53934.207   -57922.408   -178.27372    1533959.3    269.01101 
  125200    322.69574   -65341.461   -53548.632   -56149.223   -116.24714    1533959.3    284.91416 
  125300    316.02457   -64725.907   -53176.873   -53829.966   -29.193404    1533959.3    285.48741 
  125400    319.77442    -64428.55    -52742.48    -52252.07    21.921473    1533959.3     290.4874 
  125500    315.20036   -63743.837   -52224.925   -49250.871    132.94105    1533959.3    294.61416 
  125600    316.18597   -63226.681    -51671.75   -46483.401    231.92067    1533959.3    238.61574 
  125700    314.79494   -62590.869   -51086.773   -43298.026    348.15916    1533959.3    270.09127 
  125800    316.22513    -62031.92   -50475.558    -39902.74    472.60796    1533959.3    282.66647 
  125900    319.64042   -61523.116   -49841.943   -38079.746    525.77353    1533959.3    281.32868 
  126000    315.63391   -60631.822   -49097.066   -33360.552    703.42663    1533959.3    285.60016 
  126100    319.56895   -60106.584   -48428.023   -31491.333    757.07481    1533959.3     246.3606 
  126200    322.08232   -59597.135   -47826.723   -27728.213    898.40909    1533959.3    280.26825 
  126300    331.22213   -59576.705   -47472.281   -27593.947    888.56714    1533959.3     275.8202 
  126400    321.83063   -58819.558   -47058.345   -24005.811    1030.4548    1533959.3    272.23772 
  126500    340.99896   -59705.686    -47243.97   -28040.451    858.40274    1533959.3    274.06569 
  126600    334.52227   -60088.454   -47863.427   -30821.955    761.75863    1533959.3    283.70409 
  126700    331.52239   -60698.437    -48583.04   -34131.729    645.97767    1533959.3    283.87479 
  126800    324.10472   -60998.381   -49154.061   -35727.669     600.1635    1533959.3    279.97471 
  126900    331.16661   -61856.645    -49754.25   -39824.053    443.88262    1533959.3    282.10106 
  127000    330.61827   -62254.158   -50171.802   -42186.668    356.93775    1533959.3    282.03486 
  127100    327.78851   -62596.471   -50617.528   -44412.162    277.38158    1533959.3    260.64351 
  127200    324.65633   -62919.303   -51054.825   -46021.038    225.01169    1533959.3    295.16192 
  127300     326.6244   -63457.293   -51520.892   -48635.207    128.99096    1533959.3    296.38143 
  127400    318.58902   -63563.602   -51920.852   -48893.766    135.31159    1533959.3    299.27847 
  127500    328.29694   -64295.038   -52297.514   -52686.814   -17.401782    1533959.3    297.40741 
  127600    325.90475   -64583.892   -52673.791   -54203.791    -68.39145    1533959.3    214.54954 
  127700    325.24217   -64939.177   -53053.289   -55775.523   -121.68466    1533959.3     292.3249 
  127800    328.65223   -65403.179   -53392.672   -57832.099   -198.44363    1533959.3    291.38969 
  127900    332.33407   -65908.632   -53763.573   -60054.264   -281.19567    1533959.3    292.63471 
  128000    329.72531   -66203.205   -54153.482    -61506.31   -328.67351    1533959.3    288.04263 
  128100     326.4289   -66465.422   -54536.166   -63208.023   -387.63446    1533959.3    254.16759 
  128200    328.20529   -66847.883   -54853.709   -65512.701   -476.45996    1533959.3    285.79029 
  128300    329.21674    -67195.86   -55164.723    -67045.98   -531.09555    1533959.3    283.22267 
  128400    325.73013   -67392.967   -55489.246   -68065.601   -562.16662    1533959.3    284.26458 
  128500    325.68005   -67615.253   -55713.363   -68871.318   -588.16429    1533959.3    282.99603 
  128600    325.70419   -67847.159   -55944.387   -70052.307   -630.62803    1533959.3    266.29453 
  128700    326.11272   -68032.004   -56114.302   -71058.244   -667.99845    1533959.3    287.76813 
  128800    325.83269   -68212.428    -56304.96   -71244.376   -667.79613    1533959.3    293.54178 
  128900    326.44648   -68420.919    -56491.02   -72106.131   -697.99987    1533959.3    302.28085 
  129000    325.26168   -68545.789   -56659.189   -73434.437   -749.85834    1533959.3    293.03359 
  129100    331.19815    -68828.15   -56724.603   -74809.322   -808.39206    1533959.3    266.47539 
  129200    326.61909   -68927.359   -56991.152   -75040.691   -806.81948    1533959.3    281.04102 
  129300    329.91942   -69193.674   -57136.857   -75790.151   -833.80751    1533959.3    295.32943 
  129400    325.11445   -69270.036   -57388.816   -76147.365   -838.51246    1533959.3    302.39439 
  129500    324.84001   -69427.247   -57556.056   -77189.905   -877.63862    1533959.3    299.42525 
  129600    324.32538   -69561.331   -57708.947   -77598.765   -889.08048    1533959.3    229.56211 
  129700    318.11002   -69472.399   -57847.153   -77727.195   -888.64348    1533959.3    299.72074 
  129800    302.54966   -68943.134   -57886.539   -75484.051   -786.61381    1533959.3    299.86259 
  129900    310.62455   -68843.337   -57491.646   -74742.359   -771.11175    1533959.3    294.06761 
  130000    308.64277   -68385.061   -57105.794   -72900.134   -706.01149    1533959.3    284.73718 
  130100    305.75817    -67847.13   -56673.279   -69907.734   -591.58387    1533959.3    224.33848 
  130200    310.30797   -67482.631    -56142.51   -67461.531   -505.96342    1533959.3     255.6525 
  130300    309.75663   -66944.149   -55624.176   -64732.596   -407.14896    1533959.3    288.18434 
  130400    311.91524    -66499.63   -55100.771   -63157.154   -360.12261    1533959.3    287.34565 
  130500    313.92612   -66073.994   -54601.649   -59984.194   -240.60131    1533959.3    272.47064 
  130600    319.78438   -65809.175    -54122.74   -58892.431   -213.20651    1533959.3    272.65857 
  130700    320.09104    -65337.63    -53639.99     -56275.6   -117.81252    1533959.3    283.21961 
  130800    317.06524   -64750.917   -53163.853   -53899.329   -32.875976    1533959.3    286.13206 
  130900    312.38901    -64011.44   -52595.267    -50058.41    113.39824    1533959.3    284.96681 
  131000    314.42153   -63492.087   -52001.637   -47559.208    198.57786    1533959.3    284.36962 
  131100    315.81802   -62913.059   -51371.574     -44597.7    302.79409    1533959.3    236.86021 
  131200    317.68609   -62321.554   -50711.801   -41083.731    430.37744    1533959.3     276.9415 
  131300    312.46115   -61383.381   -49964.573   -37142.906    573.13214    1533959.3    274.50137 
  131400    313.30391   -60654.994   -49205.387    -33241.99    713.56836    1533959.3    287.25316 
  131500    315.67612   -60022.445   -48486.146   -30963.251    783.27835    1533959.3    271.67486 
  131600      320.411    -59630.33   -47920.996   -27527.259     911.6058    1533959.3    265.72144 
  131700     319.6673   -59043.866   -47361.711    -25240.53    988.82305    1533959.3    263.40108 
  131800    320.45081   -58636.293   -46925.504   -23740.738    1036.3656    1533959.3    266.28321 
  131900    328.13265   -58834.969   -46843.449   -23863.697    1027.2014    1533959.3    268.02394 
  132000    337.37683   -59885.302   -47555.956   -29072.617     826.2105    1533959.3    274.92329 
  132100    334.30216   -60588.726   -48371.743   -32914.825    690.92863    1533959.3    282.28808 
  132200    329.00124   -61068.962     -49045.7   -36131.825    577.25389    1533959.3    289.92056 
  132300    326.86908   -61533.159   -49587.816   -38645.662     489.1174    1533959.3    283.72424 
  132400    324.70941   -61976.535   -50110.117    -40599.18    425.14159    1533959.3    272.86238 
  132500    324.73049   -62454.773   -50587.585   -43050.546    336.90779    1533959.3    293.19766 
  132600    321.80013   -62760.396   -51000.297   -44940.756    270.86317    1533959.3    275.61104 
  132700    328.53078   -63463.367   -51457.298   -48205.635    145.35024    1533959.3     272.5048 
  132800    324.94421   -63741.259    -51866.26   -49249.806    116.95626    1533959.3    274.92474 
  132900    319.95942    -63928.15   -52235.319   -50641.304    71.252905    1533959.3    268.33242 
  133000    328.74796   -64600.375   -52586.369   -53119.526   -23.832275    1533959.3    286.34264 
  133100    324.98138   -64871.182   -52994.825   -55589.395   -115.97801    1533959.3    261.58976 
  133200    330.14368   -65412.286   -53347.274    -57557.08   -188.17952    1533959.3    262.01054 
  133300    332.78355   -65885.629   -53724.144   -60103.049   -285.13886    1533959.3    284.11747 
  133400     325.3766   -66021.584   -54130.783   -60591.588    -288.7998    1533959.3    276.94242 
  133500     326.7357   -66425.536   -54485.068   -62816.824   -372.43184    1533959.3    248.18631 
  133600    327.55953   -66803.176   -54832.602   -64988.865   -453.98783    1533959.3    290.72398 
  133700    322.20089   -66956.663   -55181.918   -65640.693   -467.51018    1533959.3    296.52915 
  133800    323.30275   -67205.452    -55390.44   -66729.842   -506.87448    1533959.3    295.14011 
  133900    322.27115   -67390.807   -55613.495   -67338.423   -524.10762    1533959.3    302.20898 
  134000    322.55987   -67596.031   -55808.168     -68616.8   -572.54948    1533959.3    282.32228 
  134100    327.43314   -67847.387   -55881.431    -69573.91   -612.05765    1533959.3    261.62337 
  134200    325.40238   -68035.249   -56143.507   -70402.597   -637.38536    1533959.3    232.37708 
  134300    324.56732   -68162.162   -56300.937   -71381.196   -674.09187    1533959.3    248.38355 
  134400    329.05031   -68491.019   -56465.964   -72787.992   -729.59927    1533959.3    278.46482 
  134500    321.09839   -68490.253   -56755.798   -72860.878   -719.90162    1533959.3      309.314 
  134600     322.5732   -68704.434   -56916.084   -73831.993   -756.14592    1533959.3    304.55389 
  134700    322.05619   -68892.116   -57122.659   -74617.335   -782.01698    1533959.3    259.64395 
  134800    321.40943   -69029.329   -57283.508   -75019.552   -792.80621    1533959.3    298.90438 
  134900    327.46412   -69225.409   -57258.321   -76375.836   -854.55833    1533959.3    296.47109 
  135000    321.21363   -69196.226   -57457.561   -76002.889   -828.98145    1533959.3    282.56973 
  135100    326.06815   -69461.244   -57545.171   -76594.033   -851.48951    1533959.3    249.98623 
  135200     325.8991   -69597.047   -57687.152   -77337.831   -878.39093    1533959.3    257.35716 
  135300    322.44687   -69589.836   -57806.102   -77356.717   -873.91803    1533959.3     286.6826 
  135400    304.93486    -69001.19   -57857.427   -75442.012   -786.03594    1533959.3    291.61051 
  135500    301.32827    -68536.89    -57524.93   -73695.677   -722.83696    1533959.3    293.05836 
  135600    304.13475   -68151.774   -57037.252   -71069.393   -627.24068    1533959.3    288.61863 
  135700    309.30443    -67800.08   -56496.633   -69344.113   -574.28597    1533959.3    300.64519 
  135800    314.83064    -67437.43   -55932.028   -67384.179   -511.91435    1533959.3    295.74946 
  135900    313.89809   -66868.925   -55397.604   -64334.798   -399.49508    1533959.3    287.46539 
  136000     315.6065   -66389.377   -54855.623   -61654.246   -303.90037    1533959.3    285.49888 
  136100    317.67402   -65947.016   -54337.704   -59861.321   -246.90726    1533959.3    216.28363 
  136200    315.17617   -65378.766   -53860.738   -56671.209   -125.62887    1533959.3    268.50969 
  136300    318.67988   -65022.202   -53376.131   -54141.598   -34.216597    1533959.3     264.7366 
  136400    315.79185   -64425.289   -52884.761   -51645.154    55.410797    1533959.3    284.45448 
  136500    316.05702   -63904.283   -52354.064    -49212.62    140.42341    1533959.3    273.10312 
  136600    314.09186   -63237.744   -51759.342   -45991.481    257.82502    1533959.3    283.41539 
  136700    315.68109   -62679.338   -51142.858   -42661.105    379.13676    1533959.3    273.44532 
  136800    313.37572   -61906.613   -50454.381   -39225.526      501.933    1533959.3     268.0899 
  136900    317.75629   -61380.275   -49767.956   -36629.573    587.28947    1533959.3     271.6307 
  137000    313.56431   -60446.922   -48987.799   -31722.668    771.75625    1533959.3    267.30244 
  137100    322.98815   -60199.648   -48396.133   -30762.048    788.24857    1533959.3    285.00515 
  137200    319.80609   -59366.491   -47679.263   -28038.453    877.94977    1533959.3    284.28712 
  137300    319.84913   -58763.826   -47075.025   -24370.841    1014.8834    1533959.3    274.88005 
  137400    324.68117    -58606.45   -46741.064   -23649.848    1032.1839    1533959.3    277.06975 
  137500    336.36318   -59359.701   -47067.399   -27463.196    876.31342    1533959.3    267.33106 
  137600    329.22766   -59707.857   -47676.321   -28449.619    859.43904    1533959.3    264.79192 
  137700    333.06838   -60677.974    -48506.08   -33035.791    691.52628    1533959.3     278.0257 
  137800    328.49585   -61095.103    -49090.31   -35522.179    606.49932    1533959.3    260.57339 
  137900     323.7356   -61435.665   -49604.834   -38157.573     511.6958    1533959.3    262.99875 
  138000     327.3016   -62059.116   -50097.967    -40869.62     412.5097    1533959.3    274.32811 
  138100    323.47989    -62341.91   -50520.425   -42512.319     357.9646    1533959.3    220.07628 
  138200    328.14552   -62950.539   -50958.549   -44694.928    279.98561    1533959.3    259.26342 
  138300    323.92206   -63142.284   -51304.639   -46327.225    222.49183    1533959.3    291.49925 
  138400    323.34355   -63219.633   -51403.129   -46966.916    198.30001    1533959.3    287.37538 
  138500    327.78611   -63656.693   -51677.838   -49086.971    115.81246    1533959.3    286.89045 
  138600    328.02355   -64051.175   -52063.642   -50726.834    59.755689    1533959.3    284.25013 
  138700    327.94455   -64447.305   -52462.659   -53288.495   -36.915075    1533959.3      291.091 
  138800    326.64219   -64777.574   -52840.523   -55248.191   -107.62346    1533959.3    289.14529 
  138900    329.98479   -65253.057   -53193.852   -57043.414   -172.07652    1533959.3    288.93037 
  139000    331.90883   -65695.366   -53565.847   -58930.815    -239.8156    1533959.3    284.57606 
  139100    326.68618   -65902.807   -53964.148   -60006.343   -270.08782    1533959.3    254.96483 
  139200     328.6919   -66307.046   -54295.089   -61851.858   -337.78971    1533959.3    284.65525 
  139300     326.4269    -66573.16   -54643.977    -63452.13   -393.72694    1533959.3    264.87402 
  139400    323.86163   -66750.658   -54915.222   -65015.834    -451.5002    1533959.3    277.21808 
  139500    322.33826   -66908.179   -55128.414    -65276.52   -453.62323    1533959.3    274.05279 
  139600    322.31749   -67068.777    -55289.77   -65997.365   -478.63252    1533959.3    273.79643 
  139700    301.53253   -66291.254   -55271.829   -63850.738   -383.47965    1533959.3    274.32739 
  139800    305.74094   -65931.656   -54758.436   -61143.003   -285.39194    1533959.3    273.33751 
  139900    309.67817   -65525.812   -54208.707   -58493.873   -191.54814    1533959.3    273.89227 
  140000    310.39962   -64997.456   -53653.985   -56088.341    -108.8164    1533959.3    268.04484 
  140100    310.06374   -64427.052   -53095.856   -52726.667    16.502852    1533959.3    266.03172 
  140200    313.23413   -63950.475   -52503.418   -49952.824     114.0123    1533959.3    290.25642 
  140300    310.42194   -63190.432   -51846.146   -46706.268    229.75401    1533959.3    284.83522 
  140400    310.50039   -62485.338   -51138.185   -42708.042    376.82977    1533959.3    272.23331 
  140500     310.8121   -61700.308   -50341.764   -39161.412     499.7649    1533959.3    285.97248 
  140600     310.5951   -60856.624   -49506.009   -34731.737    660.41418    1533959.3    283.66226 
  140700    312.66637     -60089.9   -48663.592   -31043.047    787.64335    1533959.3     287.0322 
  140800    316.65168   -59525.316   -47953.365   -28277.993    879.49469    1533959.3    286.30315 
  140900    319.38111   -59064.632   -47392.935   -25531.809    977.19853    1533959.3    279.40457 
  141000    322.85386   -58871.248   -47072.641   -24422.205    1012.4809    1533959.3    274.84313 
  141100    321.46011   -58524.746   -46777.072   -22862.136    1069.0044    1533959.3    259.05125 
  141200    341.54358   -59750.529    -47268.91   -28661.637    831.75041    1533959.3    289.61488 
  141300    329.46046   -59979.301   -47939.257   -30734.192    769.07129    1533959.3    287.42914 
  141400    329.88089   -60774.459   -48719.051   -35240.575    602.49168    1533959.3    286.52475 
  141500    325.86482   -61180.444   -49271.802   -36999.206    548.58851    1533959.3    281.35472 
  141600    321.88827   -61520.342   -49757.021   -39235.401     470.3194    1533959.3    193.95338 
  141700    324.39062   -62054.292   -50199.524     -42486.7    344.76542    1533959.3    290.11729 
  141800    324.00328    -62402.41   -50561.798   -43535.854    314.06168    1533959.3     284.3835 
  141900    326.01463   -62839.628   -50925.511   -45276.662    252.50514    1533959.3    282.07697 
  142000    324.23544   -63104.819   -51255.722   -47480.412     168.7574    1533959.3    261.21603 
  142100    327.36163   -63594.876   -51631.533   -49434.654    98.201121    1533959.3    281.56324 
  142200    324.86726   -63892.954   -52020.767   -51303.763    32.050259    1533959.3    276.14998 
  142300     330.4741   -64440.485   -52363.398   -53260.247   -40.089398    1533959.3    292.28497 
  142400    328.21117   -64733.559    -52739.17   -55289.617   -114.00569    1533959.3    283.54146 
  142500    328.10823   -65104.576   -53113.949   -56780.564   -163.89873    1533959.3    286.56508 
  142600     328.7446   -65485.553    -53471.67   -58335.642   -217.42092    1533959.3    201.35591 
  142700    331.03606   -65890.572   -53792.949   -60449.238   -297.53804    1533959.3    290.99628 
  142800    322.79665   -65946.734   -54150.217   -60777.144   -296.22552    1533959.3    291.82497 
  142900    326.19474   -66359.074   -54438.374   -62932.646   -379.69635    1533959.3    290.03925 
  143000     326.2031   -66592.335   -54671.331   -63705.167   -403.81506    1533959.3    288.99567 
  143100    332.86451   -67081.583   -54917.139   -65640.615   -479.34242    1533959.3    263.41233 
  143200    333.42017   -67467.731   -55282.981   -67437.223   -543.29806    1533959.3    252.90003 
  143300    323.85392   -67515.901   -55680.747   -68415.989   -569.26892    1533959.3    293.53746 
  143400    327.33921   -67808.851   -55846.328   -69747.248   -621.37505    1533959.3    297.35639 
  143500    326.12471    -67986.72    -56068.58   -70990.921   -667.03286    1533959.3    284.09572 
  143600    322.06321   -68047.959   -56278.246   -71059.613    -660.7313    1533959.3     160.8436 
  143700    326.57852   -68284.571   -56349.846   -71731.583     -687.568    1533959.3     294.3834 
  143800    325.40951   -68442.207   -56550.204   -72024.452   -691.70327    1533959.3    293.30674 
  143900     327.6614   -68679.478    -56705.18   -73527.449   -751.96016    1533959.3    299.03587 
  144000    330.86768   -68916.945   -56825.475   -74437.595   -787.26675    1533959.3    294.82001 
  144100    325.26091    -68964.95   -57078.377   -74592.671    -782.8939    1533959.3    179.33458 
  144200    325.92062   -69137.578   -57226.897    -75618.22   -822.09736    1533959.3       272.16 
  144300    301.14855    -68572.74   -57567.348   -74734.198   -767.36308    1533959.3    286.55176 
  144400    307.45695   -68394.063   -57158.132   -72937.726   -705.35235    1533959.3    299.33935 
  144500    301.89545   -67772.158    -56739.47   -69679.963   -578.44372    1533959.3     289.1152 
  144600    308.84717   -67446.529   -56159.792   -68086.946   -533.14714    1533959.3    276.56387 
  144700     311.2856   -66995.434   -55619.585   -65770.321   -453.74078    1533959.3    280.73892 
  144800    320.68393   -66820.327    -55101.02   -63842.606   -390.75139    1533959.3    285.29594 
  144900    321.71422   -66405.611   -54648.651   -62044.016   -330.57488    1533959.3    287.79894 
  145000    319.75826   -65856.831   -54171.352   -59485.499   -237.54389    1533959.3    281.93628 
  145100    316.97147   -65219.308   -53635.671     -55618.6   -88.637493    1533959.3    268.79913 
  145200    314.95257   -64580.481   -53070.624   -52993.525    3.4463395    1533959.3    266.61683 
  145300    312.80456   -63909.991   -52478.633   -50275.218    98.493275    1533959.3    272.12221 
  145400    316.12789   -63412.698   -51859.889   -47537.186    193.22606    1533959.3    279.52169 
  145500    311.04131    -62495.33   -51128.409   -42654.313     378.7945    1533959.3    269.22098 
  145600    319.43096   -62267.237   -50593.718   -41636.471    400.39148    1533959.3    262.53616 
  145700    323.20421   -61906.121    -50094.71   -39457.183    475.50045    1533959.3    275.84687 
  145800    321.02499   -61345.327   -49613.555   -36678.239    578.21225    1533959.3    276.62515 
  145900    321.15073   -60870.386   -49134.018   -34099.691    672.03867    1533959.3    274.65289 
  146000    316.21582   -59981.708   -48425.686   -29726.918     835.8402    1533959.3    273.21359 
  146100    317.00911   -59321.196   -47736.183   -26984.673    927.59836    1533959.3    284.43519 
  146200    318.86353   -58853.977   -47201.195   -24210.114    1027.7078    1533959.3    291.77138 
  146300    323.74213   -58690.326   -46859.256   -23371.395     1049.914    1533959.3    285.67681 
  146400    326.66805   -58748.569   -46810.573   -23997.116     1019.768    1533959.3    285.42311 
  146500    337.25172   -59837.915   -47513.142    -29083.02    823.83163    1533959.3    286.06981 
  146600    334.29178   -60462.928   -48246.325   -33212.015    672.03787    1533959.3    264.21062 
  146700    330.20523   -60937.565   -48870.304   -34943.826    622.51752    1533959.3    283.32368 
  146800    331.46297   -61617.283   -49504.058   -37911.328    518.19834    1533959.3    283.32311 
  146900    329.51622   -62117.417   -50075.336   -41597.946    378.94173    1533959.3    280.40578 
  147000    329.15475   -62718.081    -50689.21   -44459.827    278.45517    1533959.3     273.7657 
  147100    326.74096   -63195.732   -51255.071   -47193.175    181.56793    1533959.3    270.88005 
  147200    323.62918   -63564.504   -51737.563   -48847.068    129.20592    1533959.3    298.62879 
  147300    327.75932   -64083.641   -52105.765   -51686.687    18.732886    1533959.3    296.92443 
  147400    323.78844   -64292.196   -52459.434   -52956.769   -22.230995    1533959.3     296.2146 
  147500    327.98754   -64831.874   -52845.658   -55665.207   -126.03465    1533959.3    294.07442 
  147600     325.5496   -65119.659   -53222.536   -56724.492   -156.53842    1533959.3    289.91215 
  147700    328.75259   -65588.194   -53574.019   -59177.315    -250.4689    1533959.3    295.23256 
  147800    329.64997   -65976.602   -53929.633   -60795.954   -306.92652    1533959.3    281.74822 
  147900    332.78928   -66477.672   -54315.978   -63119.634   -393.52592    1533959.3    286.69965 
  148000    325.14537   -66654.339   -54771.989   -64771.002   -446.95874    1533959.3    290.43088 
  148100    325.39399   -67002.433   -55110.997   -66575.498   -512.46643    1533959.3    244.58252 
  148200    331.41137   -67451.906   -55340.567   -68193.561    -574.5325    1533959.3    296.24536 
  148300    323.62876   -67493.127   -55666.201   -68278.654   -563.78022    1533959.3    298.28495 
  148400    326.76651   -67797.854    -55856.26   -70171.019   -639.87382    1533959.3    300.14799 
  148500    324.90472   -68001.736    -56128.18   -70772.518   -654.60607    1533959.3    299.50244 
  148600     327.5427   -68340.594   -56370.634   -72194.383   -707.32604    1533959.3    296.32259 
  148700     323.2033   -68496.206   -56684.828    -73379.42   -746.25301    1533959.3     293.4471 
  148800    331.69222   -68942.167   -56820.564   -75056.901   -815.16942    1533959.3    290.96923 
  148900    329.40897   -69181.668   -57143.505   -75493.012   -820.22815    1533959.3    292.12761 
  149000    328.30552   -69421.055   -57423.218   -77519.871   -898.32608    1533959.3    291.80731 
  149100    322.63941   -69514.577   -57723.806   -77711.605   -893.46024    1533959.3    233.58918 
  149200    322.10259   -69634.093    -57862.94   -78371.676   -916.74628    1533959.3    246.86244 
  149300    305.89862     -69185.5   -58006.517   -77107.296    -853.8102    1533959.3    259.27624 
  149400    312.56749   -69022.483   -57599.788   -75434.229   -797.20455    1533959.3    273.36281 
  149500    310.12913    -68599.52   -57265.934    -73001.28   -703.37441    1533959.3    266.00844 
  149600    313.46166    -68323.72   -56868.348   -71690.818   -662.56861    1533959.3    275.83852 
  149700    312.15965   -67891.377   -56483.587    -69841.07   -597.08327    1533959.3    296.32615 
  149800    312.17818   -67469.285   -56060.818   -67419.817    -507.7505    1533959.3    291.94258 
  149900    310.93966   -66968.262   -55605.056   -65210.238   -429.35437    1533959.3    299.88982 
  150000    312.03485   -66528.807   -55125.578   -63228.413   -362.19901    1533959.3    273.92894 
  150100    310.64426   -66014.539   -54662.128   -60591.172   -265.02993    1533959.3    272.06961 
  150200    320.47216   -65902.171   -54190.602   -59451.016   -235.14197    1533959.3    295.46903 
  150300    315.45389   -65305.701   -53777.523   -56634.742   -127.71851    1533959.3    287.42579 
  150400    311.58333   -64639.162   -53252.433   -53432.245   -8.0376487    1533959.3    290.98861 
  150500    312.64127   -64140.498   -52715.107   -51798.315    40.980828    1533959.3    295.40868 
  150600    318.21695   -63881.072   -52251.919   -49456.378    124.96149    1533959.3    297.82216 
  150700    321.86261   -63582.226   -51819.843   -47402.221    197.46898    1533959.3    294.47703 
  150800    318.97064   -63119.995   -51463.298    -45169.78    281.32207    1533959.3    290.87439 
  150900    318.88947    -62674.74    -51021.01   -43006.212    358.26375    1533959.3    290.12672 
  151000    319.83482   -62268.077   -50579.799   -40851.984    434.83609    1533959.3    288.39795 
  151100    319.39064   -61839.947   -50167.902   -39100.641    494.70969    1533959.3    273.08231 
  151200    315.76903   -61169.055    -49629.36   -35565.376    628.66406    1533959.3    275.95721 
  151300    315.12762   -60523.485   -49007.231   -32686.033    729.56216    1533959.3    278.82098 
  151400    317.61307    -60040.84   -48433.756   -30348.256    808.42694    1533959.3    273.71764 
  151500     321.6898   -59633.225   -47877.158   -28116.558    883.30441    1533959.3    273.74765 
  151600    316.21963   -58750.825   -47194.663   -24603.146    1009.8472    1533959.3    279.49598 
  151700    324.93858   -58724.196   -46849.403   -24631.259    993.15732    1533959.3    283.29651 
  151800    323.85335   -58724.201   -46889.068   -24485.753    1001.4345    1533959.3    282.46754 
  151900    334.95627   -59740.367    -47499.48   -28830.212    834.52156    1533959.3    289.26234 
  152000    327.65644   -60066.465   -48092.349   -30417.179    790.08512    1533959.3    284.99044 
  152100    331.24187   -60851.807   -48746.662   -35214.984     604.8698    1533959.3    289.81299 
  152200    327.75747    -61285.79   -49307.981   -37664.179    520.48124    1533959.3    292.14816 
  152300    330.75023   -61947.186   -49860.008   -40558.781    415.76748    1533959.3    292.76584 
  152400    330.47808   -62448.499   -50371.266   -43072.437    326.25972    1533959.3    295.52565 
  152500    333.45231   -63057.193   -50871.268   -46434.158    198.34007    1533959.3    295.00788 
  152600    327.97859   -63348.468   -51362.579   -47840.739    157.42723    1533959.3    168.94831 
  152700    336.56889   -64150.725   -51850.905   -51634.927    9.6542976    1533959.3    295.41326 
  152800    332.83026   -64514.066   -52350.874   -53431.468   -48.302872    1533959.3    292.29251 
  152900    330.79072   -64880.613   -52791.955   -55531.056   -122.43857    1533959.3    295.37477 
  153000    327.60664   -65148.741   -53176.445   -56829.412   -163.28866    1533959.3    291.80467 
  153100    324.92393   -65361.713   -53487.455   -58705.445   -233.24562    1533959.3    227.86152 
  153200    327.13693    -65710.64   -53755.508   -60008.765   -279.52234    1533959.3    293.51323 
  153300    324.48503   -65902.069   -54043.851   -60893.245   -306.16983    1533959.3    304.68021 
  153400    329.00202   -66335.043   -54311.753   -62432.087   -362.98125    1533959.3    301.12955 
  153500    309.63177   -65918.472   -54603.062   -61459.903   -306.50273    1533959.3    297.68202 
  153600    307.42464   -65414.179   -54179.428   -58850.769   -208.81026    1533959.3    294.04329 
  153700    309.85204   -64901.374   -53577.915   -56201.665   -117.28237    1533959.3    295.95689 
  153800    308.79885   -64226.888   -52941.917    -52814.82     5.681289    1533959.3    295.70755 
  153900    315.02454   -63855.021   -52342.534    -50891.66    64.854455    1533959.3    294.45366 
  154000    319.88386   -63477.694   -51787.624     -48469.1    148.33896    1533959.3    290.40393 
  154100    316.42885   -62801.562   -51237.754   -44912.783    282.72801    1533959.3    291.62937 
  154200    314.78911    -62201.88   -50697.997   -42024.118    387.72482    1533959.3    304.07411 
  154300    318.46317   -61752.063   -50113.912   -39225.354    486.72163    1533959.3    295.51275 
  154400    313.43318   -60809.197   -49354.865   -35582.419    615.63225    1533959.3    296.47277 
  154500    317.35338   -60273.427   -48675.833   -32803.939    709.47813    1533959.3    286.04698 
  154600    336.48356   -60801.589   -48504.888   -34707.862    616.73096    1533959.3    242.38955 
  154700    334.97003   -61327.888   -49086.498   -37429.258    521.08193    1533959.3    291.21671 
  154800      332.913   -61973.346    -49807.13   -40560.837    413.31192    1533959.3     288.5944 
  154900    333.19731   -62627.247   -50450.641   -43946.448    290.73927    1533959.3    288.12218 
  155000    326.87036   -62923.885   -50978.496   -46408.135    204.29641    1533959.3    284.65448 
  155100    322.36273   -63232.671   -51452.012   -48154.103    147.41744    1533959.3     241.8608 
  155200    323.41664   -63693.199   -51874.025   -49838.883    90.971413    1533959.3     280.1709 
  155300    327.07318   -64131.824   -52179.022   -51971.073    9.2953802    1533959.3    275.79753 
  155400    335.65849   -64831.206   -52564.656   -54991.282   -108.47086    1533959.3    286.06083 
  155500     328.4412   -65132.585    -53129.79   -57002.161   -173.09608    1533959.3     295.9191 
  155600     328.9145   -65585.231   -53565.139   -59059.227   -245.58731    1533959.3    286.49617 
  155700    330.41034   -66001.976   -53927.219   -61035.202   -317.72884    1533959.3    297.96836 
  155800    325.49165   -66232.066   -54337.062   -62765.412   -376.74964    1533959.3     287.4579 
  155900    325.76892   -66593.961   -54688.824   -64116.626   -421.42543    1533959.3    286.11313 
  156000    325.21055   -66872.793   -54988.061   -65010.062   -447.98629    1533959.3     265.1607 
  156100    325.81804    -67140.69   -55233.757   -67284.841   -538.68687    1533959.3    248.41562 
  156200    326.59722   -67420.641   -55485.233   -67795.997   -550.29462    1533959.3    282.35668 
  156300    324.06932   -67603.857    -55760.83    -69028.57   -593.07174    1533959.3    264.45234 
  156400    330.51551   -68043.895   -55965.295   -70632.429   -655.62504    1533959.3    271.16007 
  156500    329.95909   -68289.452   -56231.186   -71664.573   -689.87676    1533959.3    263.01177 
  156600    331.32902   -68577.977   -56469.647   -73057.408   -741.47759    1533959.3     276.0502 
  156700    327.68035   -68770.733   -56795.742   -73985.969   -768.40801    1533959.3    292.29597 
  156800    329.15094   -69054.607   -57025.874   -75116.492   -808.65574    1533959.3    292.03649 
  156900    330.98207   -69355.491    -57259.84   -75982.361   -836.90201    1533959.3    293.83935 
  157000    326.63623   -69502.706   -57565.873   -77215.504   -878.34405    1533959.3    289.38029 
  157100    323.81038   -69630.426   -57796.863   -78657.467    -932.4749    1533959.3    274.38823 
  157200    318.50305   -69573.295   -57933.686   -78080.133   -900.55186    1533959.3    298.63942 
  157300    310.11794   -69251.034   -57917.857   -76432.568    -827.6128    1533959.3    296.29014 
  157400    311.85331   -68972.747   -57576.152   -74642.411   -762.86662    1533959.3    275.62336 
  157500     310.2927   -68568.973    -57229.41    -72920.94   -701.41584    1533959.3    279.54199 
  157600     314.7077   -68310.927   -56810.019   -71711.297   -666.09133    1533959.3    278.71463 
  157700     315.2556   -67940.423   -56419.492   -70052.611   -609.40426    1533959.3     279.2524 
  157800      312.773   -67450.215    -56020.01   -67247.994   -501.89407    1533959.3    285.54786 
  157900    316.42566   -67141.089   -55577.398   -65733.927   -453.99968    1533959.3    285.54047 
  158000    314.84009   -66652.556    -55146.81   -62512.737   -329.25901    1533959.3    285.10163 
  158100    314.30642   -66181.191   -54694.947    -60326.95   -251.75212    1533959.3     263.4623 
  158200    318.79207   -65876.621   -54226.451   -59024.017   -214.45257    1533959.3     281.9721 
  158300    317.86144   -65448.928   -53832.767   -56862.329   -135.42228    1533959.3    284.13286 
  158400    320.28771   -65094.804   -53389.976   -55671.585   -101.98857    1533959.3    276.79146 
  158500    320.79857   -64739.146   -53015.649   -52881.538    5.9948181    1533959.3    291.42451 
  158600    321.19552   -64406.929   -52668.925   -51302.205    61.092757    1533959.3    277.70981 
  158700    313.99649   -63735.284   -52260.366   -49015.224    145.05877    1533959.3    283.34148 
  158800    313.78659   -63109.149   -51641.902   -45991.836    252.55956    1533959.3    287.21696 
  158900    316.33415   -62579.893   -51019.546   -42818.189    366.60301    1533959.3    287.59666 
  159000    314.70391   -61855.511   -50354.741   -39911.636    466.80977    1533959.3     272.4432 
  159100    319.34484   -61461.635   -49791.264   -36918.422    575.41968    1533959.3     279.0731 
  159200    312.28191   -60487.503   -49075.245   -32501.895    740.83342    1533959.3    289.15526 
  159300    316.02534   -59962.569   -48413.509   -31046.824    776.29573    1533959.3    268.84617 
  159400    318.49425   -59406.519   -47767.232   -28171.596     875.9305    1533959.3    288.36721 
  159500    319.16503   -58790.399   -47126.598   -24987.506    989.62369    1533959.3    291.12939 
  159600    331.89501   -58998.929   -46869.916   -25367.172    961.17871    1533959.3    272.44975 
  159700     333.4347   -59053.841   -46868.559    -26139.17    926.60959    1533959.3    277.86821 
  159800    335.63634   -59803.699   -47537.959   -29129.948    822.84329    1533959.3    285.00574 
  159900    333.44588   -60470.908   -48285.218   -32764.359     693.7868    1533959.3    289.11679 
  160000     329.1619   -60946.414    -48917.28   -35562.977    596.94115    1533959.3    281.24568 
  160100    330.51309   -61574.615   -49496.103   -38813.233    477.52731    1533959.3    228.13245 
  160200    330.96404   -62144.424   -50049.432   -41655.506    375.21089    1533959.3    251.64641 
  160300    327.72971   -62549.047   -50572.253   -43469.229    317.50719    1533959.3    289.00981 
  160400    327.50064   -63013.092   -51044.669   -46638.688    196.94858    1533959.3    297.54814 
  160500    323.65158   -63279.203   -51451.443   -47628.623    170.88113    1533959.3    294.70794 
  160600    329.85216   -63899.274   -51844.915    -50691.77    51.545923    1533959.3    294.37472 
  160700    322.19568    -63990.52   -52215.965   -51368.077     37.90085    1533959.3    274.47945 
  160800      326.465    -64521.92   -52591.344   -53895.878   -58.313005    1533959.3    268.81222 
  160900    333.34496   -65187.463   -53005.461   -56888.391   -173.56807    1533959.3    286.35241 
  161000    330.33347   -65508.909   -53436.961   -58383.678   -221.11961    1533959.3    283.44278 
  161100    324.59991   -65705.937    -53843.52   -59759.094   -264.42783    1533959.3    231.57904 
  161200    325.84837   -66033.523   -54125.482   -61328.974   -321.99814    1533959.3    267.13968 
  161300    329.44636   -66463.385   -54423.857   -62718.588   -370.77683    1533959.3     252.1514 
  161400    329.61098    -66768.13   -54722.586   -64851.068   -452.74602    1533959.3    270.44567 
  161500      327.167   -66962.584   -55006.354   -65757.765    -480.5911    1533959.3    269.98365 
  161600    327.56396   -67221.467    -55250.73   -66704.544   -511.98872    1533959.3    277.43005 
  161700    326.23159   -67416.834   -55494.788   -67859.276   -552.69613    1533959.3    275.05328 
  161800    330.48843   -67755.008   -55677.397   -68896.954   -590.91794    1533959.3    274.48017 
  161900    326.20802   -67876.333   -55955.148   -70105.762   -632.53642    1533959.3    296.15604 
  162000    327.89917   -68157.156   -56174.169   -71099.707    -667.1758    1533959.3    296.37263 
  162100    324.67283   -68315.337   -56450.255   -71935.585   -692.19861    1533959.3    248.41327 
  162200    328.20812   -68624.657    -56630.38   -72962.284   -730.04073    1533959.3    281.24964 
  162300    323.05288   -68721.806   -56915.925   -73895.246   -758.98042    1533959.3    292.57898 
  162400    328.43211   -69071.864     -57069.4   -75174.496   -809.30291    1533959.3    271.19742 
  162500    328.80844   -69308.478   -57292.262   -76521.054   -859.53244    1533959.3    279.62735 
  162600    325.36535   -69434.988   -57544.598   -76789.888   -860.26987    1533959.3    286.93913 
  162700    326.75145    -69639.73   -57698.686   -77777.909   -897.54698    1533959.3     257.2585 
  162800    322.73927   -69650.527   -57856.108   -78251.657   -911.68683    1533959.3    292.16261 
  162900    323.06279   -69695.848   -57889.605   -77838.216   -891.70857    1533959.3    253.84716 
  163000    308.31799   -69137.125   -57869.727   -75944.389    -807.9425    1533959.3    237.13031 
  163100    307.80558   -68780.902    -57532.23   -74133.413   -742.07759    1533959.3    217.66057 
  163200    307.66092   -68392.056    -57148.67   -72285.368   -676.61468    1533959.3    259.73625 
  163300    310.40985   -68047.243   -56703.399   -70377.731   -611.24652    1533959.3    272.18578 
  163400    312.01236   -67642.021   -56239.613   -68493.157   -547.73689    1533959.3    306.84835 
  163500     312.5005   -67171.374   -55751.128   -65998.155     -458.045    1533959.3    304.33424 
  163600    313.32538   -66697.841   -55247.449   -63591.798   -372.99475    1533959.3    302.49581 
  163700     315.8569   -66263.494   -54720.588   -60381.183   -253.03021    1533959.3     301.6747 
  163800    315.78484   -65750.853   -54210.581    -58119.88   -174.74678    1533959.3    281.51241 
  163900    313.92796   -65181.723    -53709.31   -55499.157   -80.006669    1533959.3     267.3977 
  164000    319.51428   -64910.713    -53234.15   -53796.423   -25.133751    1533959.3    255.13512 
  164100    319.37995   -64471.119   -52799.464   -51851.563    42.371447    1533959.3    215.47783 
  164200    316.25856   -63906.424    -52348.84   -48730.052    161.76086    1533959.3    248.02869 
  164300    312.11197   -63179.042   -51772.994   -46151.847    251.26684    1533959.3    276.39274 
  164400     311.8524   -62508.091   -51111.529   -42470.985    386.23478    1533959.3    268.01469 
  164500    314.76548   -61924.147   -50421.128    -39522.77    487.15965    1533959.3    267.13389 
  164600    316.20344   -61334.816   -49779.246   -36707.878    584.29385    1533959.3     267.1926 
  164700    319.67045   -60857.461   -49175.191   -34225.045    668.27573    1533959.3    278.49256 
  164800    314.12442   -59881.361   -48401.768   -30160.056    815.40971    1533959.3    277.37556 
  164900    321.90809   -59599.875    -47835.83   -28420.754    867.85941    1533959.3    280.16771 
  165000    319.24961   -58835.817   -47168.926   -24636.021    1007.2272    1533959.3    287.44313 
  165100    322.63269   -58583.172   -46792.647   -23670.363    1033.5726    1533959.3    272.70466 
  165200    342.74956    -59795.39     -47269.7   -28645.808    832.49324    1533959.3    291.21752 
  165300    335.39768   -60292.251   -48035.232    -31215.83    751.83206    1533959.3    290.35749 
  165400    328.94721   -60687.934   -48666.646   -34286.711    642.78716    1533959.3    290.24297 
  165500    328.58853   -61315.461   -49307.282   -37109.668     545.2368    1533959.3    288.12534 
  165600    329.83926   -61971.116   -49917.229   -40892.513    403.40734    1533959.3     283.6993 
  165700    329.10259   -62501.256    -50474.29   -43444.889    314.21622    1533959.3    282.01343 
  165800    325.08728   -62821.122   -50940.895   -45315.121     251.4737    1533959.3    282.15363 
  165900    322.90889   -63120.148   -51319.529   -46519.547    214.56056    1533959.3    281.88057 
  166000    325.55809   -63619.532   -51722.099   -48959.442    123.49151    1533959.3     278.1804 
  166100     329.4827   -63979.305   -51938.448   -50533.467    62.803058    1533959.3    283.12727 
  166200    325.13899   -64185.883   -52303.766   -51659.676    28.791013    1533959.3    296.43254 
  166300    330.76524   -64840.856   -52753.129   -54543.535   -80.031675    1533959.3    294.68454 
  166400    330.06276   -65258.475    -53196.42   -56871.296     -164.268    1533959.3    286.49265 
  166500    328.31361   -65616.985   -53618.852   -58162.543   -203.10426    1533959.3    294.52396 
  166600    325.82299   -65913.826   -54006.712    -59959.06   -266.07164    1533959.3    282.50331 
  166700    328.89273    -66362.35   -54343.054   -62309.749   -356.11352    1533959.3    288.09071 
  166800    324.47029   -66561.876   -54704.196    -64022.51   -416.53129    1533959.3    286.61423 
  166900    323.55745   -66828.544   -55004.224   -64964.757   -445.23863    1533959.3    289.93239 
  167000    327.15308   -67185.183   -55229.461    -66280.81   -493.99841    1533959.3     291.1599 
  167100    326.01772   -67410.864   -55496.634   -67529.761   -537.88417    1533959.3    234.65859 
  167200    325.10239   -67602.466   -55721.687   -68389.207   -566.24176    1533959.3    275.88569 
  167300    322.32426   -67757.102   -55977.848   -69246.646   -593.11901    1533959.3    241.21429 
  167400    321.50971   -67937.176    -56187.69    -70146.63   -623.96858    1533959.3    267.58927 
  167500    327.22239   -68304.919   -56346.665   -71698.088   -686.21294    1533959.3    257.34926 
  167600    327.62424   -68529.314   -56556.374   -72798.261   -726.01692    1533959.3    289.77194 
  167700    324.91268   -68685.713   -56811.866   -73779.898   -758.47583    1533959.3    287.22345 
  167800    328.06105   -68993.732   -57004.829   -75049.266   -806.59143    1533959.3    292.27296 
  167900    330.62921   -69258.732   -57175.976   -75810.453   -832.96637    1533959.3    294.12968 
  168000    327.61522   -69397.224   -57424.614    -76609.28   -857.55997    1533959.3    286.77786 
  168100    325.64221   -69525.929   -57625.422   -77157.272   -873.07921    1533959.3    250.87801 
  168200    317.67794   -69455.923   -57846.468   -77213.676   -865.71965    1533959.3     267.2132 
  168300    320.80126   -69488.999   -57765.403   -77428.833   -878.96089    1533959.3    277.63518 
  168400     307.6076   -68863.965   -57622.528   -75125.239   -782.37612    1533959.3    261.90419 
  168500    310.14843   -68566.058   -57231.767   -72650.559   -689.22433    1533959.3    273.84273 
  168600    311.25645   -68190.907   -56816.124   -71230.717    -644.3364    1533959.3    292.06903 
  168700    311.90561    -67770.42   -56371.913   -68772.082   -554.29104    1533959.3    303.43199 
  168800    309.35989   -67229.137   -55923.664   -66137.752   -456.57265    1533959.3    304.63573 
  168900    313.68798   -66862.022   -55398.379   -64713.357   -416.38214    1533959.3     300.0372 
  169000     314.1876   -66370.902   -54889.001   -61723.597   -305.50838    1533959.3    297.97112 
  169100    318.40128   -66017.541   -54381.652   -59909.105   -247.07871    1533959.3    266.91069 
  169200    317.74074   -65497.599   -53885.849   -56909.283   -135.14837    1533959.3    254.17744 
  169300    316.91814   -64977.594   -53395.906   -54170.679     -34.6326    1533959.3     247.9734 
  169400    317.02533   -64490.358   -52904.752   -51210.633    75.727639    1533959.3    239.38001 
  169500    316.16996   -63957.121   -52402.775   -49145.083    145.61972    1533959.3    267.39821 
  169600     316.9407   -63433.919   -51851.406   -46808.597      225.415    1533959.3    271.71253 
  169700    310.81351   -62500.156    -51141.56   -42706.706    377.04038    1533959.3    277.76002 
  169800     315.3995   -62021.104   -50494.914   -39853.808    475.66047    1533959.3    274.40636 
  169900    318.43585   -61470.011   -49832.858   -36940.907     576.2739    1533959.3     277.3618 
  170000    314.45385   -60573.103   -49081.471   -33743.566    685.60871    1533959.3    259.71405 
  170100     316.5817   -59999.209   -48429.816   -30196.133    815.05078    1533959.3    276.48055 
  170200    318.26493   -59432.288   -47801.382   -28208.369    875.81321    1533959.3    287.82777 
  170300    331.27162   -59530.499   -47424.267   -27342.125    897.67742    1533959.3    286.62245 
  170400    318.82399   -58415.741   -46764.404   -22737.976    1073.9881    1533959.3    284.82149 
  170500    322.57095    -58338.02   -46549.751   -22244.949    1086.4315    1533959.3    288.25267 
  170600    336.66523    -59469.67   -47166.329    -27332.59    886.57373    1533959.3    283.03671 
  170700    336.04874   -60243.995   -47963.184   -31008.963    757.85844    1533959.3    264.95752 
  170800    327.71127   -60576.522   -48600.402     -33546.4    672.91815    1533959.3    287.58188 
  170900    328.99916   -61298.179   -49274.993   -37369.688    532.17052    1533959.3    285.21892 
  171000    324.21979   -61638.288   -49789.762   -38423.959    508.05463    1533959.3     286.8724 
  171100    315.59325   -61706.093   -50172.822   -40009.208    454.31644    1533959.3    282.00623 
  171200    332.39834   -62269.517   -50122.109   -41870.515    368.84862    1533959.3     253.8464 
  171300    333.24256   -62530.668   -50352.409   -43557.938    303.71476    1533959.3    275.23341 
  171400     328.7311    -62901.72    -50888.33   -45001.637    263.13683    1533959.3     286.1223 
  171500    328.48233   -63311.744   -51307.445   -47522.169    169.20291    1533959.3    285.00264 
  171600    328.04687   -63614.749   -51626.364   -48616.828    134.52713    1533959.3    286.60678 
  171700     330.1016   -64034.981   -51971.507   -51146.073    36.897117    1533959.3    289.16523 
  171800    327.66653   -64367.056    -52392.57   -53295.813   -40.375203    1533959.3    290.78062 
  171900    326.00242   -64706.187   -52792.516   -54733.963   -86.783247    1533959.3    283.64116 
  172000    326.25396   -65028.889   -53106.026   -56133.618   -135.33425    1533959.3    280.13085 
  172100     324.8898    -65337.75   -53464.739   -57959.864   -200.93336    1533959.3    252.19294 
  172200    326.23548   -65712.343   -53790.156   -59500.547   -255.25612    1533959.3    275.62553 
  172300    321.39862   -65862.967   -54117.541   -60119.089   -268.27089    1533959.3    289.01977 
  172400    323.48365   -66210.764   -54389.141   -62018.538   -341.03619    1533959.3    283.83772 
  172500    325.07383   -66512.423   -54632.687   -63359.739   -390.10169    1533959.3    287.74997 
  172600    325.70878   -66771.364   -54868.424   -64570.264   -433.67497    1533959.3    289.52451 
  172700    328.25131   -67064.522   -55068.666   -65427.717   -463.05253    1533959.3    299.19329 
  172800     324.7814    -67191.94   -55322.891    -66289.77   -490.22258    1533959.3    291.27172 
  172900    307.38075   -66852.223   -55619.076   -65573.398     -444.961    1533959.3    289.47076 
  173000    328.87113    -67470.49   -55451.983   -67669.517   -546.12721    1533959.3    285.72001 
  173100    329.30682   -67702.227   -55667.798   -69335.056   -610.93028    1533959.3    278.77836 
  173200    324.42926   -67806.688   -55950.507   -69173.384   -591.06634    1533959.3    294.18332 
  173300    326.57603   -68106.813    -56172.18   -70833.627   -655.37085    1533959.3    299.22659 
  173400    328.49829   -68376.807   -56371.926   -71897.224   -693.98521    1533959.3    301.48821 
  173500    326.69649   -68555.663   -56616.628   -72700.659   -718.96077    1533959.3    306.84521 
  173600    326.88135   -68748.662   -56802.871   -73983.037   -767.95825    1533959.3    287.40689 
  173700    329.22884   -69027.295   -56995.715    -74979.35   -803.87357    1533959.3    289.79777 
  173800    322.57118   -69063.333   -57275.056   -75291.547   -805.34225    1533959.3    294.43465 
  173900    328.73428    -69365.93   -57352.424   -76850.701    -871.5785    1533959.3    297.31465 
  174000    326.99697   -69506.536    -57556.52    -77098.72    -873.5419    1533959.3    295.15943 
  174100    320.67706   -69503.179   -57784.122   -77599.586   -885.75684    1533959.3    263.40737 
  174200    317.85898   -69509.672   -57893.601   -77919.937   -895.18289    1533959.3    289.87448 
  174300    304.32053   -68972.611   -57851.299   -75680.388   -796.96533    1533959.3    289.40705 
  174400    304.34243   -68602.909   -57480.797   -73559.156    -718.7072    1533959.3    286.22637 
  174500    309.34501   -68306.786   -57001.856   -72071.526   -673.61852    1533959.3    283.90534 
  174600    309.48854   -67846.926   -56536.751   -69194.494   -565.80471    1533959.3    299.91491 
  174700    314.46895   -67533.667   -56041.484   -66933.339     -486.869    1533959.3    299.15659 
  174800    310.61317    -66908.37   -55557.096   -64593.269   -403.91953    1533959.3    292.84638 
  174900    311.78222   -66385.397   -54991.399   -62209.971   -322.67217    1533959.3    292.23447 
  175000    311.26147    -65796.09   -54421.123    -59007.29   -205.00297    1533959.3    284.44078 
  175100     314.2103    -65322.81    -53840.08    -56715.59   -128.53613    1533959.3    203.96343 
  175200    316.41315   -64854.615   -53291.381   -53453.292   -7.2374528    1533959.3    267.24742 
  175300    313.77543   -64191.387   -52724.548    -51454.89    56.754065    1533959.3    262.46092 
  175400    313.37613   -63578.433   -52126.186   -48057.668    181.86394    1533959.3    276.58922 
  175500    316.62251   -63094.046   -51523.161   -45051.455    289.28708    1533959.3    278.08616 
  175600    316.24851   -62402.545   -50845.328   -41859.368    401.67495    1533959.3    270.84559 
  175700    310.31509   -61382.506   -50042.125   -36771.894    593.18307    1533959.3    270.46468 
  175800    313.02617   -60671.689   -49232.232   -33105.471    720.87078    1533959.3     267.7548 
  175900    317.33557   -60095.987   -48499.044   -31082.991    778.50246    1533959.3    268.67137 
  176000    321.39885   -59621.283   -47875.849   -28202.276    879.41426    1533959.3    265.78627 
  176100    319.63243   -59002.264   -47321.383   -25773.048    963.21667    1533959.3    266.88878 
  176200    324.32513   -58818.802   -46966.427   -24561.647       1001.5    1533959.3    283.13606 
  176300    342.33307   -59547.045   -47036.575   -27397.642    877.86587    1533959.3    282.29454 
  176400    336.96973   -59988.541   -47674.073   -29412.252    816.30858    1533959.3     287.5249 
  176500    331.55839    -60587.72   -48471.008   -32926.031     694.8649    1533959.3    278.26013 
  176600    325.99374   -61054.831   -49141.477   -36067.865    584.39417    1533959.3    272.93322 
  176700    326.83698   -61658.256   -49714.086   -38747.944    490.18965    1533959.3    282.56973 
  176800    324.32681   -62055.483   -50203.047   -41176.392    403.49403    1533959.3    289.68288 
  176900    315.10278    -61821.57   -50306.224   -41178.446    408.01426    1533959.3    278.65945 
  177000    335.40013    -62572.37   -50315.262   -44009.641    281.86302    1533959.3    274.80981 
  177100    332.30509   -62912.628   -50768.628   -45018.082    257.05104    1533959.3    272.73658 
  177200    325.99725   -63200.744   -51287.262   -46781.002    201.43111    1533959.3    286.55842 
  177300    329.37045   -63802.235    -51765.48   -49258.415    112.06652    1533959.3    285.61806 
  177400    325.19063   -64063.271   -52179.266   -51779.403    17.874027    1533959.3    283.21464 
  177500    329.39154   -64593.051   -52555.526   -54064.265   -67.441058    1533959.3    281.86087 
  177600    326.65121   -64879.564   -52942.184    -55498.79   -114.28105    1533959.3    290.32634 
  177700    321.87536    -65062.91   -53300.061   -56598.768    -147.4531    1533959.3    281.53395 
  177800     326.4311   -65557.938   -53628.601   -58017.975   -196.20627    1533959.3    289.81399 
  177900    326.21552   -65897.124   -53975.665   -60207.408   -278.56066    1533959.3    292.32674 
  178000    325.27308   -66134.958   -54247.941   -61628.209   -329.90006    1533959.3    286.80982 
  178100    321.90608   -66292.626   -54528.655   -61982.896    -333.2067    1533959.3    252.01489 
  178200    301.08958   -65579.259   -54576.022   -59466.881   -218.62278    1533959.3    303.22864 
  178300    308.17799   -65266.952    -54004.67   -57786.907   -169.06705    1533959.3    288.20117 
  178400    310.26236   -64736.486   -53398.032   -54600.856   -53.766576    1533959.3    282.87178 
  178500    308.61865   -64033.363   -52754.977   -50985.431     79.09922    1533959.3    277.69914 
  178600     307.5111   -63331.491    -52093.58   -48027.882    181.73788    1533959.3    278.02791 
  178700    311.60147   -62789.297   -51401.905   -44496.434    308.67652    1533959.3    279.34762 
  178800    312.03107   -62081.345   -50678.254   -41291.132    419.60701    1533959.3    285.65463 
  178900    311.23889   -61214.994   -49840.852   -37408.144    555.74559    1533959.3    281.46423 
  179000    313.76817   -60452.114   -48985.541   -32604.837     732.2221    1533959.3    272.66761 
  179100    319.30844   -59938.974   -48269.933   -30219.609    806.85459    1533959.3    261.37295 
  179200    318.77863   -59224.613   -47574.934   -27744.482    886.42682    1533959.3    293.63405 
  179300    327.13798    -58928.46   -46973.291   -25578.535    956.35162    1533959.3    288.43384 
  179400    331.13995   -58723.896   -46622.476   -24219.676    1001.4115    1533959.3    286.47954 
  179500    338.94278   -59161.717   -46775.144   -26064.113    925.78894    1533959.3    287.50657 
  179600    332.65064   -59658.374   -47501.746   -28585.511    845.56103    1533959.3    238.74505 
  179700    327.11219   -60206.081   -48251.854   -32197.798    717.62083    1533959.3     285.1464 
  179800    327.31969   -60899.259   -48937.449   -35119.706    617.65702    1533959.3     283.9336 
  179900    324.09137   -61309.921   -49466.089   -37735.569    524.35755    1533959.3    290.88448 
  180000    322.10107    -61669.55   -49898.453   -39759.581    453.21047    1533959.3    285.36369 
  180100    323.76146   -62096.042   -50264.267   -41279.027    401.64276    1533959.3    263.12265 
  180200    313.43955   -62065.759   -50611.195   -41945.363    387.36514    1533959.3    255.06499 
  180300    330.06567   -62945.194   -50883.033   -45742.619    229.77797    1533959.3    288.19681 
  180400    325.72692   -63149.789   -51246.186   -46617.706    206.89438    1533959.3    274.19433 
  180500    321.60565   -63446.283   -51693.291   -47977.565      166.094    1533959.3    273.01885 
  180600    326.72063   -64040.246   -52100.328   -51339.607    34.004477    1533959.3    278.07583 
  180700    326.95253   -64414.307   -52465.914   -52913.065   -19.987751    1533959.3    282.65675 
  180800    323.15461    -64644.74   -52835.142     -54579.5   -77.973304    1533959.3    275.17437 
  180900    327.09404   -65113.938   -53160.374   -56734.928   -159.78357    1533959.3    274.53604 
  181000    325.48628    -65391.45   -53496.642   -57128.382   -162.33982    1533959.3    275.59819 
  181100    327.18679   -65747.906   -53790.953   -59459.038   -253.36501    1533959.3    279.48257 
  181200     331.7062    -66191.51   -54069.396   -61694.767   -340.85626    1533959.3    298.92952 
  181300    333.77305   -66649.082   -54451.436   -63602.831   -409.06995    1533959.3    277.50274 
  181400    323.14195   -66701.594   -54892.459   -64478.582   -428.50243    1533959.3    263.32352 
  181500    322.24479   -66951.203   -55174.854    -65849.63   -477.16551    1533959.3    298.41483 
  181600    320.60616   -67105.871   -55389.405   -67043.292   -520.93204    1533959.3    296.35588 
  181700     326.9602   -67467.136   -55518.463   -67619.141   -540.90372    1533959.3    295.87463 
  181800    325.27809   -67636.289   -55749.089   -68956.722   -590.38495    1533959.3    295.59647 
  181900    323.17261   -67803.096    -55992.84   -69638.782    -609.9775    1533959.3    293.91368 
  182000    321.95612    -67972.03    -56206.23   -70720.259    -648.7812    1533959.3     287.4059 
  182100      322.258   -68156.157   -56379.325   -71518.189   -676.71152    1533959.3    225.38558 
  182200    325.94728   -68423.959   -56512.303    -72773.85   -726.89573    1533959.3    273.90514 
  182300    328.38089   -68654.821   -56654.229   -74007.868   -775.71256    1533959.3    251.90622 
  182400    325.26188   -68775.685   -56889.077    -73876.24   -759.33098    1533959.3    264.42583 
  182500     328.9919   -69043.737   -57020.816   -74556.228   -783.83787    1533959.3    280.85622 
  182600    331.96326   -69296.063   -57164.555   -75783.081   -832.25339    1533959.3    273.12037 
  182700     331.9307   -69507.102   -57376.784    -76538.86   -856.55021    1533959.3    306.23651 
  182800    324.09705   -69528.497   -57684.457   -76836.567   -856.10472    1533959.3    291.39657 
  182900    319.37591   -69527.232   -57855.725   -77446.844   -875.72854    1533959.3    302.18503 
  183000    303.78682    -69050.09   -57948.283   -76166.654   -814.36635    1533959.3    300.65251 
  183100    305.81016   -68749.069   -57573.318   -74326.901   -748.88989    1533959.3    258.20238 
  183200    306.48681    -68335.86   -57135.382   -72189.457   -672.92141    1533959.3    287.39428 
  183300    306.86149   -67871.068   -56656.897   -69713.764   -583.64567    1533959.3     284.3673 
  183400    306.82685   -67351.664    -56138.76   -66530.634   -464.51973    1533959.3    288.57017 
  183500     307.5499   -66821.108    -55581.78    -64710.69   -408.06485    1533959.3    280.99678 
  183600    313.11139   -66434.515   -54991.943   -62066.576   -316.23807    1533959.3    284.63033 
  183700    318.63826   -66117.527   -54472.977   -60020.069   -247.95656    1533959.3     281.8711 
  183800    321.20624   -65800.373   -54061.977    -58401.89   -193.99533    1533959.3    287.63078 
  183900    314.86573   -65093.026   -53586.343   -55083.825   -66.937882    1533959.3    285.62195 
  184000    309.96785   -64326.007   -52998.315   -51338.838    74.179077    1533959.3    284.04012 
  184100    316.88508   -63978.495   -52398.015    -49346.42    136.40715    1533959.3    257.84429 
  184200    319.64735    -63458.78   -51777.353   -46401.021    240.32357    1533959.3     273.9216 
  184300    316.09663   -62696.049   -51144.382   -42863.928    370.13867    1533959.3    281.87432 
  184400    312.68421   -61852.718   -50425.758   -38505.095    532.85703    1533959.3    285.49655 
  184500    312.25885   -60979.226    -49567.81   -35403.583    633.14496    1533959.3    272.31249 
  184600    315.50035   -60316.079   -48786.204   -31656.064    765.72212    1533959.3    278.92148 
  184700    318.33972   -59684.358   -48050.718   -29287.259    838.73194    1533959.3    271.60256 
  184800    320.56053   -59093.252   -47378.453   -25044.996    998.31186    1533959.3     280.6711 
  184900     323.3338   -58661.044   -46844.898   -23943.091    1023.7172    1533959.3    284.62782 
  185000     336.3672   -59069.721   -46777.272   -25161.034    966.25193    1533959.3    277.76002 
  185100    337.28629   -59664.662   -47338.625   -28094.305    860.22655    1533959.3     268.6576 
  185200    328.51377   -60052.482   -48047.035   -30616.021    779.17124    1533959.3    290.23855 
  185300    326.91181   -60667.235   -48720.331   -34856.081    619.73594    1533959.3    268.83686 
  185400     323.4635   -61110.947    -49290.06   -35646.998    609.84874    1533959.3    287.88743 
  185500    316.60095   -61231.694   -49661.597   -37485.135    544.29132    1533959.3    294.72782 
  185600     325.5875   -61770.442   -49871.935   -39450.969    465.82011    1533959.3    296.79311 
  185700    300.20759   -60493.476   -49522.471   -34511.599    670.99022    1533959.3    289.31422 
  185800    307.10433   -59975.525    -48752.48   -31247.386    782.48265    1533959.3    287.20693 
  185900    313.86118   -59472.868   -48002.896   -29183.411    841.23632    1533959.3     284.9279 
  186000     320.6729   -59034.938   -47316.033   -26037.397    951.16106    1533959.3    284.24994 
  186100    322.41634   -58468.939    -46686.32   -23315.471    1044.6836    1533959.3    265.28011 
  186200     322.0031   -58180.471   -46412.954   -22168.907    1083.7157    1533959.3     295.6892 
  186300    335.35923   -59482.864   -47227.251   -27995.434    859.66766    1533959.3    286.52318 
  186400     331.7825   -60127.923   -48003.021   -32259.926    703.72081    1533959.3    281.03217 
  186500     328.5069    -60641.99   -48636.794   -34926.772    612.84183    1533959.3    281.06871 
  186600    327.73093   -61157.312   -49180.473   -37543.989    520.15413    1533959.3    261.58421 
  186700    323.13823   -61114.974   -49305.974    -37190.15    541.58079    1533959.3    279.82753 
  186800    331.25894   -61528.685   -49422.916   -38652.265    481.45115    1533959.3    281.07888 
  186900    333.89757   -62221.543   -50019.345   -41778.916    368.34955    1533959.3    280.27293 
  187000    327.78763   -62544.802   -50565.891   -43857.656    299.86003    1533959.3    281.14294 
  187100    326.60435   -62930.841   -50995.173    -46848.12    185.37443    1533959.3    272.82457 
  187200    324.08297   -63240.307   -51396.782   -47679.905    166.14543    1533959.3    291.15465 
  187300    321.89389   -63548.509   -51784.984   -49242.458     113.6516    1533959.3     280.6097 
  187400    327.73161   -64083.877   -52107.013   -51954.768    6.8054036    1533959.3     278.5166 
  187500    324.71127    -64311.57   -52445.084   -53101.664   -29.349336    1533959.3    283.19934 
  187600    326.55583   -64699.937   -52766.042   -55041.201   -101.70022    1533959.3    282.88705 
  187700     328.0359   -65044.636   -53056.652   -56436.435   -151.07725    1533959.3    295.74424 
  187800    326.49038   -65274.844   -53343.341   -57441.396   -183.18422    1533959.3     296.8742 
  187900    327.94785    -65587.59   -53602.824   -58754.499   -230.28131    1533959.3    294.43382 
  188000    325.82249   -65836.351   -53929.255   -60115.333   -276.51942    1533959.3    288.87704 
  188100    334.43725   -66443.326   -54221.407   -62903.963   -388.11273    1533959.3    272.05337 
  188200    328.77792   -66575.861   -54560.761   -63984.645   -421.25028    1533959.3    284.70065 
  188300    320.47444   -66617.917   -54906.265   -64603.367    -433.4632    1533959.3    289.09427 
  188400    321.79029   -66907.085   -55147.345   -65624.274   -468.32169    1533959.3    296.60737 
  188500    321.35584   -67121.973    -55378.11   -66441.442   -494.53407    1533959.3    298.67429 
  188600    325.12821   -67421.226   -55539.503   -67186.931   -520.64333    1533959.3    296.81769 
  188700    325.12956   -67634.768   -55752.996   -68854.729    -585.6512    1533959.3    290.73668 
  188800    322.08329   -67735.343   -55964.896   -69948.808   -625.08486    1533959.3    284.38254 
  188900     325.9011   -68009.393   -56099.425   -70765.097    -655.5597    1533959.3    288.29744 
  189000    326.02984    -68186.67   -56271.997   -71083.661   -662.08559    1533959.3    291.24462 
  189100    318.76273     -68182.3   -56533.202   -71625.026   -674.60878    1533959.3    266.22506 
  189200    328.37332   -68581.909   -56581.595   -73011.498   -734.42134    1533959.3    289.22804 
  189300    329.09926   -68791.492   -56764.648   -73854.942   -763.94098    1533959.3    284.39468 
  189400    323.45925   -68837.793   -57017.061   -74022.338   -760.14067    1533959.3      242.078 
  189500    327.37958   -69102.527   -57138.528   -75053.471   -800.80303    1533959.3    251.52614 
  189600    330.75503   -69378.263   -57290.909   -76267.075      -848.24    1533959.3    250.38364 
  189700    325.90918   -69460.737   -57550.474   -77135.934   -875.47562    1533959.3    263.33179 
  189800    321.74639   -69510.868   -57752.733   -77043.007    -862.2807    1533959.3    269.72652 
  189900    318.19759   -69485.919   -57857.474   -77021.365   -856.63136    1533959.3    288.39973 
  190000    308.53706   -69063.503   -57788.099   -75163.837   -776.70039    1533959.3    287.78136 
  190100    304.49783   -68594.132   -57466.341   -73241.226   -705.14184    1533959.3    264.43066 
  190200    302.39642   -68079.764   -57028.768   -70890.029   -619.60228    1533959.3    255.51327 
  190300     306.7203   -67709.517   -56500.506   -68482.956   -535.61889    1533959.3    275.76163 
  190400    309.84092   -67245.181   -55922.128   -66079.345   -454.03049    1533959.3    298.31083 
  190500    308.37567   -66624.754   -55355.248   -63581.995   -367.73793    1533959.3    308.00113 
  190600    312.35266   -66180.543   -54765.699   -60634.928   -262.35623    1533959.3    298.76705 
  190700    315.91119   -65756.884   -54211.994    -57997.56   -169.21588    1533959.3    288.08893 
  190800    316.13155   -65248.517   -53695.574   -56067.798   -106.03907    1533959.3    295.27537 
  190900     313.4283   -64559.887   -53105.734   -52666.686     19.62558    1533959.3    292.51736 
  191000    318.88958   -64102.051   -52448.317   -50167.912    101.93473    1533959.3    291.63282 
  191100    313.21453   -63191.036   -51744.696   -45833.949    264.21206    1533959.3    240.31981 
  191200    316.49606   -62621.423   -51055.159   -43128.253    354.33496    1533959.3    275.53989 
  191300    317.41493   -61934.999   -50335.156   -40344.476    446.58623    1533959.3    279.68665 
  191400    320.60889   -61423.284   -49706.718   -37171.245    560.33921    1533959.3    264.62786 
  191500    312.10964   -60363.076   -48957.113   -32802.243    722.12723    1533959.3    252.11911 
  191600    316.11972   -59714.671   -48162.161   -29432.982    837.19962    1533959.3     275.9701 
  191700    316.37806    -58946.12   -47384.169   -25721.202    968.34076    1533959.3    285.92998 
  191800    326.10882   -58827.955   -46910.396   -25261.189    967.72565    1533959.3    284.33338 
  191900    322.05857   -58283.572   -46514.028   -22314.052    1081.7458    1533959.3    286.05908 
  192000    340.70087   -59313.837   -46863.015   -27941.907    845.77889    1533959.3     232.5603 
  192100    332.15811   -59656.216   -47517.587   -28602.602    845.50515    1533959.3    285.74122 
  192200    323.04878   -59994.678   -48188.947   -31325.765    753.78903    1533959.3    290.96681 
  192300    326.79807   -60788.105   -48845.358   -35704.217    587.41272    1533959.3    285.02278 
  192400    322.93178   -61134.107   -49332.651   -37495.983    529.10242    1533959.3     290.4174 
  192500    330.56749    -62038.73    -49958.23   -41411.555    382.03879    1533959.3    296.12698 
  192600    330.17859   -62574.535   -50508.248   -43846.973    297.76087    1533959.3    294.04061 
  192700    326.51222   -62850.344   -50918.042   -46515.403     196.7992    1533959.3    289.50933 
  192800    322.72083   -63031.609   -51237.863   -46843.106    196.44692    1533959.3    288.56958 
  192900    326.54258   -63513.546   -51580.135   -48882.608     120.5802    1533959.3    285.25287 
  193000    325.40821   -63839.966   -51948.011   -50901.252    46.790409    1533959.3    288.19206 
  193100    328.58963   -64224.852   -52216.632   -51699.626    23.110312    1533959.3     289.7123 
  193200    318.93401   -64203.683   -52548.325   -52626.894   -3.5120478    1533959.3    293.44361 
  193300    323.19549   -64672.656   -52861.563   -54689.339   -81.702065    1533959.3    297.46225 
  193400    323.36019   -64917.362   -53100.251    -55528.22    -108.5309    1533959.3     292.4003 
  193500     304.2538   -64322.334   -53203.461   -53550.852    -15.52846    1533959.3    286.49852 
  193600    305.80279   -63768.921    -52593.44   -51082.923    67.520553    1533959.3    255.17874 
  193700    306.30043    -63052.44   -51858.773   -48247.314    161.43322    1533959.3    268.05563 
  193800    304.62959   -62168.215   -51035.609   -42927.638     362.4286    1533959.3    268.68497 
  193900     311.7594   -61674.915   -50281.751   -39983.657    460.32774    1533959.3    269.80876 
  194000    313.48385   -60951.857   -49495.674   -36670.283    573.29861    1533959.3    277.72838 
  194100    322.21784   -60592.214   -48816.849   -33659.826    677.52321    1533959.3    224.10271 
  194200    317.16476   -59533.728   -47943.026   -28644.757    862.63809    1533959.3     272.0008 
  194300    319.64992   -58926.869   -47245.348   -25991.516    950.05233    1533959.3    283.80372 
  194400    324.95183   -58647.554   -46772.276   -24535.005    994.01234    1533959.3     283.5658 
  194500    321.92429   -58247.805   -46483.168   -23181.307    1041.5998    1533959.3    283.87479 
  194600      338.392   -59382.952   -47016.507   -28632.717    821.76064    1533959.3    282.17413 
  194700     333.2063   -59991.798   -47814.863   -30993.361     751.9259    1533959.3     291.3227 
  194800    324.35131   -60266.424   -48413.092   -34108.999    639.39704    1533959.3    282.12953 
  194900    322.09454   -60679.091   -48908.232   -35562.017    596.57961    1533959.3    284.74627 
  195000    328.25222   -61466.079    -49470.19   -38734.474    479.88952    1533959.3    281.79895 
  195100     326.1849   -61894.244   -49973.905   -41113.442    396.06516    1533959.3    205.66181 
  195200    329.20656   -62491.887   -50461.122   -43894.412     293.5338    1533959.3    285.62856 
  195300    325.94384   -62760.518   -50848.988   -45056.777    258.91348    1533959.3    281.61807 
  195400    314.68457   -62578.242   -51078.179   -45166.521    264.25279    1533959.3    286.84278 
  195500    329.66618   -63210.178   -51162.616   -47168.289    178.54751    1533959.3    286.03469 
  195600     330.5821   -63480.176   -51399.142   -48552.525    127.24462    1533959.3    279.66856 
  195700    322.21851   -63512.243   -51736.854   -49540.743     98.16678    1533959.3    290.81187 
  195800    325.48432   -63978.896   -52084.159   -51765.702    14.235129    1533959.3    293.03072 
  195900    321.06807   -64120.702   -52387.356   -53142.644   -33.761581    1533959.3    288.52214 
  196000    327.19441   -64618.128   -52660.896   -55010.122   -105.01109    1533959.3    295.08446 
  196100    333.01825   -65209.107   -53039.044   -57050.618   -179.31847    1533959.3    274.19576 
  196200    330.79642   -65553.274   -53464.408   -58997.196   -247.31718    1533959.3    286.00914 
  196300    317.58407   -65477.239   -53871.214   -59386.932   -246.55416    1533959.3    290.74938 
  196400    326.17366   -66056.962   -54137.033   -61707.044   -338.38165    1533959.3    281.43156 
  196500    324.18716   -66281.364   -54434.032   -62968.319   -381.48508    1533959.3    287.78314 
  196600    320.09191   -66406.585   -54708.912   -63057.814   -373.19826    1533959.3    279.48574 
  196700    326.71641   -66814.271   -54874.507   -65565.163   -477.87535    1533959.3    278.59411 
  196800    323.37077   -66933.765   -55116.267   -65961.667   -484.79244    1533959.3    255.43189 
  196900    324.79489   -67161.048   -55291.506   -66968.511   -521.96543    1533959.3    275.87263 
  197000      322.124   -67256.165    -55484.23   -66732.857    -502.8168    1533959.3    282.06047 
  197100    325.39441   -67480.123   -55588.672   -68014.778   -555.45046    1533959.3    229.41934 
  197200    326.60563   -67686.164   -55750.449   -69034.778   -593.81328    1533959.3    256.88319 
  197300     317.3095   -67616.232   -56020.242   -69132.929   -586.14084    1533959.3    254.54287 
  197400    324.79704   -67969.891    -56100.27   -70655.224   -650.61054    1533959.3    253.20828 
  197500    322.50554   -68072.604   -56286.725   -70861.626   -651.50218    1533959.3    269.08194 
  197600    327.85495   -68384.832   -56403.461   -71698.175   -683.67801    1533959.3    257.92134 
  197700    328.17602    -68570.93   -56577.825   -72429.931   -708.59362    1533959.3    251.76484 
  197800    321.94032   -68592.582    -56827.36   -73359.147   -738.97554    1533959.3    262.28826 
  197900    328.87568   -68956.542   -56937.869   -74323.148    -777.1269    1533959.3    266.65378 
  198000    326.88285   -69091.351   -57145.505   -75088.041   -802.03642    1533959.3    284.49345 
  198100    325.16249   -69222.363   -57339.388   -76059.775   -836.80663    1533959.3    255.89973 
  198200     324.5877   -69371.754   -57509.784   -76237.501   -837.13425    1533959.3    252.14397 
  198300    323.01272   -69496.278   -57691.865   -77362.159    -879.2677    1533959.3    255.10982 
  198400    321.64457   -69549.999   -57795.584   -77416.779   -877.07296    1533959.3    283.98031 
  198500    304.96616   -69055.593   -57910.687   -75419.557   -782.65145    1533959.3    292.02449 
  198600    307.13394   -68790.947    -57566.82   -74266.193    -746.4667    1533959.3    250.80705 
  198700    308.07019    -68413.47   -57155.127   -72752.351    -697.2003    1533959.3    282.71353 
  198800    307.15117    -67927.85   -56703.092   -69804.969   -585.65758    1533959.3    278.93056 
  198900    306.87725   -67404.928   -56190.181   -67308.421   -496.98846    1533959.3    275.11083 
  199000    310.60676   -66964.871    -55613.83   -65738.428   -452.57237    1533959.3    271.93185 
  199100    309.42797   -66322.062     -55014.1    -61666.34   -297.35699    1533959.3    272.27925 
  199200    311.81705   -65801.497   -54406.226   -59527.759   -228.93396    1533959.3    278.47721 
  199300    319.37388   -65498.987   -53827.554   -57988.017   -185.97388    1533959.3     277.6951 
  199400    319.43081   -64972.283    -53298.77   -54616.573   -58.906174    1533959.3    280.54907 
  199500    315.79034   -64385.676   -52845.203   -51601.131    55.610346    1533959.3    274.16637 
  199600    313.32553   -63780.487   -52330.089    -49177.16    140.93682    1533959.3    272.01332 
  199700    313.49266   -63101.205     -51644.7   -45719.254    264.86912    1533959.3    285.42816 
  199800      308.212   -62122.496   -50858.972   -40269.232    473.36437    1533959.3    298.02701 
  199900    314.91966   -61643.086   -50134.432   -38310.127     528.5498    1533959.3    292.41315 
  200000    316.03507   -60922.522   -49373.105   -34210.105    677.79043    1533959.3     252.0523 
  200100    322.47981    -60528.65   -48743.713   -32972.526    704.97651    1533959.3    282.63752 
  200200    316.19564   -59481.537   -47926.253   -27931.052    893.79114    1533959.3    286.27951 
  200300    318.89529   -58922.965   -47269.022   -24959.725     997.2319    1533959.3    277.05968 
  200400    325.42076   -58809.691   -46917.277   -24473.268    1003.2536    1533959.3    289.76934 
  200500    320.85147   -58510.628   -46785.197   -22710.637    1076.1397    1533959.3     286.6826 
  200600    336.54624   -59937.793   -47638.801   -29203.947    824.04319    1533959.3    275.88787 
  200700    330.74213   -60447.209   -48360.327   -32816.186    694.82746    1533959.3    285.82301 
  200800    330.45225   -61086.722   -49010.433    -36664.43    551.86985    1533959.3    293.06778 
  200900    327.76351   -61564.031   -49586.001   -38289.784    504.94412    1533959.3    291.70238 
  201000     327.0001   -62045.021    -50094.89    -41373.38      389.854    1533959.3    285.48994 
  201100     324.0635   -62331.014     -50488.2   -43048.883    332.53958    1533959.3    249.17654 
  201200    329.28195   -62868.666   -50835.146    -45427.83    241.70856    1533959.3     284.6002 
  201300    325.36243   -63037.027   -51146.744    -45956.13    232.02193    1533959.3    294.62203 
  201400    325.54985   -63421.686   -51524.554   -48348.764    141.95871    1533959.3    289.46317 
  201500    326.76799    -63796.57   -51854.922   -50324.929    68.391079    1533959.3    296.04985 
  201600    329.27577   -64267.314    -52234.02   -52035.257    8.8847204    1533959.3     297.3509 
  201700    328.72984   -64621.827   -52608.483   -54200.122   -71.146693    1533959.3    292.78894 
  201800    329.34055   -65048.806   -53013.145   -55632.295   -117.07678    1533959.3    287.03476 
  201900    323.66658   -65260.234   -53431.926   -57294.823   -172.67262    1533959.3    291.18598 
  202000    325.65862   -65677.877    -53776.77   -59238.682   -244.14901    1533959.3    287.32164 
  202100    321.72266   -65860.698    -54103.43   -60459.042   -284.09765    1533959.3    217.00775 
  202200    324.94572   -66273.651   -54398.597   -62034.555    -341.3295    1533959.3    264.79693 
  202300    326.28783   -66579.496   -54655.395   -63715.945   -405.00918    1533959.3     302.0984 
  202400    322.99865   -66698.039    -54894.14   -63908.911   -402.96281    1533959.3    297.77396 
  202500    318.03559   -66741.663   -55119.138     -64334.1   -411.91141    1533959.3    297.93302 
  202600    323.85657   -67087.025   -55251.774   -65932.041   -477.41096    1533959.3    301.20221 
  202700    299.67354   -66190.619    -55239.13    -62704.32   -333.69614    1533959.3    288.89535 
  202800    307.46911   -65924.087   -54687.711    -60849.71   -275.44307    1533959.3    294.43465 
  202900    308.99741   -65421.816   -54129.589   -58748.788   -206.47949    1533959.3      286.967 
  203000    310.27892   -64859.739    -53520.68   -55506.984   -88.788351    1533959.3    281.10977 
  203100    316.34614    -64511.95   -52951.165   -53335.567   -17.182875    1533959.3    220.95682 
  203200    309.50848   -63617.923   -52307.019   -48375.046    175.76032    1533959.3    268.68445 
  203300    308.93153   -62908.674   -51618.855   -44931.332    298.93413    1533959.3    279.12361 
  203400     306.6116   -62015.032   -50809.993   -40703.382    451.76836    1533959.3    272.76354 
  203500    313.61199    -61499.41   -50038.544   -38066.111    535.17113    1533959.3    292.03812 
  203600    313.43665   -60605.605   -49151.147    -34013.66    676.64996    1533959.3    294.40695 
  203700    315.61081   -59893.578   -48359.666   -30510.492    797.86311    1533959.3    292.95008 
  203800    319.64621   -59337.924   -47656.539   -27519.023     900.1527    1533959.3    293.43848 
  203900    320.69134   -58748.177   -47028.598   -25684.297    954.09632    1533959.3     287.2746 
  204000     325.6332   -58490.728   -46590.551   -23739.975    1021.4272    1533959.3    286.79178 
  204100     322.7225   -58572.132   -46778.325   -23795.949    1027.3187    1533959.3    277.52348 
  204200     333.6811   -59888.302   -47694.016   -30533.254    767.09091    1533959.3    297.32877 
  204300    326.57698   -60242.393   -48307.725   -32486.339    707.22041    1533959.3    290.33378 
  204400    330.19412    -61040.61   -48973.754   -36249.844    568.76238    1533959.3    293.74283 
  204500    325.86984    -61396.17   -49487.345    -38962.83    470.44876    1533959.3    295.36063 
  204600    326.30294    -61747.02   -49822.367   -40113.977    433.96776    1533959.3    295.19682 
  204700    317.38931   -61641.071   -50042.164   -39922.957    452.33142    1533959.3    291.86437 
  204800    326.01754   -62235.945   -50321.721   -42775.745     337.3073    1533959.3    285.69393 
  204900    327.13562   -62361.188   -50406.105   -42736.424    342.83691    1533959.3    263.79105 
  205000    305.16653   -61140.661   -49988.432   -39149.832    484.48848    1533959.3    283.73288 
  205100    308.15289   -60417.878   -49156.514    -34341.62    662.22997    1533959.3    236.91078 
  205200    311.94137   -59731.362   -48331.549   -31392.808    757.16652    1533959.3    268.02822 
  205300    314.51703   -59029.145   -47535.205   -26801.009    926.82442    1533959.3    287.57517 
  205400    318.54555   -58487.141    -46845.98   -23800.272    1030.1497    1533959.3    285.25966 
  205500    334.75651   -58809.833   -46576.246   -25718.744    932.33624    1533959.3    286.17618 
  205600     335.5914   -58948.588    -46684.49   -26521.784    901.27868    1533959.3    253.37684 
  205700    332.96901   -59602.438   -47434.175    -29400.13    806.12691    1533959.3    287.75333 
  205800     329.1281   -60200.519   -48172.621   -32780.149    688.04783    1533959.3    289.57888 
  205900    326.50537   -60689.688   -48757.637   -35497.382    592.73716    1533959.3    289.62248 
  206000     325.3778    -61094.05   -49203.205    -37785.15    510.39031    1533959.3    284.99605 
  206100    325.30387   -61453.089   -49564.947   -39122.582    466.77663    1533959.3    211.53685 
  206200    306.99912    -60875.72   -49656.519   -37606.639    538.63308    1533959.3     301.2366 
  206300    305.63484   -60607.903   -49438.559   -35374.802    628.65396    1533959.3    299.59764 
  206400    308.41213   -59981.469   -48710.631   -32956.054    704.23405    1533959.3    295.77824 
  206500    315.11865   -59516.218   -48000.291   -30460.655    784.02668    1533959.3    293.45655 
  206600     321.3104   -59096.416   -47354.214   -28359.238    849.08077    1533959.3     259.6991 
  206700    323.07087   -58551.824   -46745.286   -25208.243    962.71191    1533959.3    285.71183 
  206800    322.72478   -58330.104   -46536.214   -23863.619    1013.4714    1533959.3     290.1191 
  206900    330.31248   -59152.305   -47081.124   -28792.883    817.48953    1533959.3    288.18196 
  207000    326.62499   -59736.909   -47800.487   -31449.751    730.88251    1533959.3    284.80776 
  207100    328.07072   -60449.937   -48460.681   -34807.846    610.28559    1533959.3    248.64182 
  207200    327.95503   -60968.433   -48983.405   -36655.937     551.0413    1533959.3    297.01274 
  207300    325.96922   -61362.963   -49450.506   -40240.928    411.67071    1533959.3    301.10231 
  207400    332.59331   -62062.233     -49907.7   -43225.321    298.70423    1533959.3    298.18613 
  207500    332.11147   -62628.241   -50491.317   -45923.852    204.16698    1533959.3    299.29364 
  207600     325.0595   -62858.076   -50978.864   -47412.584    159.41376    1533959.3    297.65372 
  207700    322.52116   -63101.411   -51314.962   -48104.773    143.49635    1533959.3    299.44064 
  207800    326.90857   -63495.226   -51548.441   -49836.908    76.506003    1533959.3    299.71431 
  207900    330.07632   -63519.711   -51457.161    -49458.21    89.353664    1533959.3    298.06259 
  208000    306.15308     -62283.4   -51095.118   -44008.104    316.79152    1533959.3    292.56449 
  208100    315.38509   -62112.685   -50587.022   -43467.451    318.24684    1533959.3    203.21486 
  208200     312.3223   -61389.814   -49976.079   -39532.669    466.82339    1533959.3    287.90799 
  208300    308.94381   -60557.813   -49267.545   -35954.422    595.10036    1533959.3    299.51698 
  208400    311.70552   -59883.878   -48492.684    -32384.74    720.02964    1533959.3    299.66057 
  208500    316.03026   -59302.336   -47753.095   -29565.863    812.97442    1533959.3    293.00841 
  208600    317.06742   -58608.704   -47021.561   -25788.661    949.11664    1533959.3     284.9856 
  208700    325.61669    -58516.74   -46617.165   -25295.708    953.07516    1533959.3    284.15539 
  208800    328.71072   -58639.172   -46626.527   -25990.579    922.43274    1533959.3    289.40305 
  208900    330.83566   -59381.697   -47291.397   -28970.059    818.96897    1533959.3    285.85476 
  209000    329.20336   -60043.361   -48012.713   -32728.726    683.19853    1533959.3    286.09849 
  209100    312.75728   -59799.397   -48369.766    -32205.32    722.55531    1533959.3    243.17992 
  209200    327.61062   -60674.382    -48701.94   -35901.327    572.19103    1533959.3    297.42787 
  209300    326.66152   -61052.888   -49115.131     -38040.7    495.03022    1533959.3    297.99334 
  209400    329.69196   -61687.263   -49638.759   -40767.465    396.54935    1533959.3    296.58555 
  209500     329.9436   -62226.951   -50169.251   -43246.732    309.43856    1533959.3    295.09401 
  209600    327.15626    -62587.48   -50631.643   -45214.311    242.15627    1533959.3    289.18018 
  209700     328.2928   -63056.238   -51058.866   -47434.718    162.00045    1533959.3    287.74661 
  209800    333.26119   -63695.685   -51516.744    -50021.01    66.859753    1533959.3    282.43482 
  209900    327.77308   -63968.674   -51990.295   -52362.948   -16.657691    1533959.3    281.56645 
  210000    326.35817   -64326.251    -52399.58   -53174.493   -34.638827    1533959.3    273.84363 
  210100    322.55041   -64543.296   -52755.778   -54909.986   -96.293704    1533959.3     276.0502 
  210200    326.95421   -65011.808   -53063.355   -57155.038   -182.89942    1533959.3    297.78114 
  210300    327.14382    -65250.97   -53295.587   -57710.419   -197.34422    1533959.3     302.4199 
  210400    324.81362   -65434.131   -53563.905   -58696.581   -229.43207    1533959.3    297.31549 
  210500    323.38116   -65658.713   -53840.836   -60679.464   -305.68861    1533959.3    294.29602 
  210600    324.25919   -65927.793   -54077.828   -61118.603   -314.72463    1533959.3    248.34296 
  210700    319.59932   -66018.948   -54339.277   -61809.841    -333.9363    1533959.3    290.77296 
  210800    325.63417   -66427.332   -54527.118   -63680.756   -409.17017    1533959.3    271.16586 
  210900     326.6992   -66681.307   -54742.173   -64944.308   -456.03835    1533959.3    289.60308 
  211000    332.27296   -67091.587   -54948.761   -65717.818   -481.37989    1533959.3    285.18964 
  211100    331.62947   -67376.158   -55256.848   -67425.074   -543.92316    1533959.3     264.8088 
  211200    322.64464   -67394.043   -55603.081   -68333.715   -569.06292    1533959.3    301.26019 
  211300    320.50269   -67529.101   -55816.416   -68493.827   -566.68383    1533959.3     303.9549 
  211400      327.913   -67822.103   -55838.611   -69578.244    -614.1655    1533959.3    298.01198 
  211500       324.76   -67932.039   -56063.772    -69982.66   -622.17824    1533959.3    289.84924 
  211600     321.8904   -68031.376   -56267.978   -70979.644   -657.61564    1533959.3    270.16225 
  211700    328.05334    -68334.31   -56345.689   -71587.147   -681.29748    1533959.3    291.08171 
  211800     325.3876   -68460.149   -56568.947   -72819.796   -726.41757    1533959.3    290.78989 
  211900    320.42914   -68481.477    -56771.48   -72538.581   -704.79387    1533959.3    295.16192 
  212000    329.42659   -68797.584   -56758.778   -73892.477   -765.88119    1533959.3    286.56997 
  212100    325.64435   -68905.058   -57004.473   -74961.186   -802.67017    1533959.3    254.69079 
  212200    324.43273   -69052.164   -57195.857   -75242.507   -806.69036    1533959.3    289.02893 
  212300    319.45425   -69098.984   -57424.614   -75381.303   -802.66907    1533959.3    284.55656 
  212400    313.91125   -69085.378   -57613.576   -76046.537    -823.9586    1533959.3    288.61366 
  212500    301.51022    -68653.74    -57635.13   -73882.772   -726.27419    1533959.3    290.16807 
  212600    301.70808    -68305.33    -57279.49   -72672.457   -688.07001    1533959.3    293.35823 
  212700    303.14094   -67870.217   -56792.013   -70337.366   -605.48111    1533959.3    298.74747 
  212800    307.63907   -67462.372   -56219.785   -67498.042   -504.14129    1533959.3    299.61561 
  212900    310.11779   -66990.665   -55657.494   -65240.922   -428.38194    1533959.3    292.08326 
  213000     313.8315   -66583.845   -55114.957   -63285.651   -365.23234    1533959.3    285.74609 
  213100    315.38827    -66094.25    -54568.47    -60691.75   -273.71235    1533959.3    260.23582 
  213200    310.23006   -65304.497   -53967.223   -56217.922   -100.60689    1533959.3    300.94093 
  213300    315.50376   -64881.923   -53351.923     -54574.7   -54.658458    1533959.3    305.57499 
  213400    316.71264   -64312.465   -52738.287   -51431.783    58.401093    1533959.3    303.67629 
  213500    319.19202   -63792.304   -52127.517   -49043.007    137.87848    1533959.3    296.85214 
  213600    323.65614   -63459.638   -51631.711   -46240.142    241.00468    1533959.3     265.5796 
  213700    321.44661   -62948.044   -51200.865     -44909.7    281.21681    1533959.3    285.78367 
  213800    322.09608    -62474.82   -50703.905   -42697.038    357.90922    1533959.3    283.33747 
  213900    315.55604    -61613.77    -50081.86   -38715.273    508.08964    1533959.3    288.50289 
  214000    316.75504   -61088.343   -49512.615   -35455.538    628.35531    1533959.3    288.56442 
  214100     318.0971   -60500.413    -48875.64   -33608.953    682.42522    1533959.3    262.44795 
  214200    310.63791   -59383.106   -48030.927   -28231.002    885.06224    1533959.3    276.21491 
  214300    318.36635   -59004.036   -47369.424   -25473.298      978.763    1533959.3    281.90293 
  214400    322.82211   -58612.906   -46815.459   -23824.201    1027.7158    1533959.3    266.49537 
  214500    328.78217   -58655.861   -46640.605   -23844.779    1018.9799    1533959.3    276.33629 
  214600    329.83196   -59201.598   -47147.978   -27367.065    884.21242    1533959.3    277.12265 
  214700    331.05183    -60064.54    -47966.34    -31279.29    745.91584    1533959.3     291.3227 
  214800    326.54688   -60513.288    -48579.72   -33811.023    660.16495    1533959.3    285.10008 
  214900    327.94787   -61171.472   -49186.705    -37109.82    539.84021    1533959.3    289.31083 
  215000    327.98139   -61734.168   -49748.176   -40096.144    431.44855    1533959.3    273.61568 
  215100    326.89312   -62241.977   -50295.756   -42253.743    359.48026    1533959.3    279.07477 
  215200    328.13943   -62845.512   -50853.744   -45849.954    223.67083    1533959.3    278.24463 
  215300    330.98223   -63494.409   -51398.753   -48658.649    122.48338    1533959.3    297.21479 
  215400    329.02852   -63956.692   -51932.433   -51125.582    36.066485    1533959.3     298.5529 
  215500    324.53583   -64274.514   -52414.439   -52944.075   -23.674838    1533959.3    299.06998 
  215600    328.52902   -64821.436   -52815.431    -55207.26   -106.91542    1533959.3    291.40913 
  215700    319.99593   -64897.569   -53203.404   -56276.511   -137.36872    1533959.3    298.62708 
  215800    323.82971   -65312.538   -53478.269   -58289.757   -215.07489    1533959.3    299.79786 
  215900    323.79541   -65571.173   -53738.157   -59634.745   -263.57917    1533959.3    301.98247 
  216000     324.6304   -65855.593   -53992.062   -61036.517   -314.88914    1533959.3    298.10793 
  216100    327.96558   -66169.591   -54184.177   -62439.768   -369.02722    1533959.3    232.55269 
  216200    326.35957   -66361.818   -54435.095   -63263.004   -394.61003    1533959.3     273.7221 
  216300    324.71169    -66602.61   -54736.108   -64254.885   -425.49203    1533959.3    288.67365 
  216400    326.39097   -66943.018   -55015.147   -66209.693   -500.39937    1533959.3    293.14439 
  216500    323.92455   -67103.287   -55265.551   -66888.308   -519.54052    1533959.3     295.2735 
  216600    326.36786     -67348.1   -55421.074   -67929.996   -559.15234    1533959.3    287.32321 
  216700      325.421   -67528.807   -55636.384   -68516.954   -575.76509    1533959.3    294.08823 
  216800    322.45313   -67639.881   -55855.918   -68410.486   -561.19274    1533959.3    298.27965 
  216900    328.13056   -68001.175   -56009.731   -70185.598   -633.66523    1533959.3    297.57833 
  217000    319.82958   -67948.635   -56260.549   -70632.732   -642.44067    1533959.3    292.07045 
  217100    321.91174   -68115.709   -56351.531   -71445.719   -674.71444    1533959.3    225.31258 
  217200    327.62454   -68428.972   -56456.021    -72452.12   -715.03012    1533959.3    240.86342 
  217300      328.438   -68632.396   -56629.718   -73610.432   -759.04272    1533959.3    256.22301 
  217400    327.41342   -68768.293   -56803.058   -74348.996   -784.30839    1533959.3     308.9729 
  217500    328.91984   -69011.619   -56991.332   -74984.581   -804.30329    1533959.3    298.21369 
  217600    331.28151    -69250.74   -57144.147   -75902.704   -838.51283    1533959.3    291.97591 
  217700    328.31742   -69364.609   -57366.337   -77071.056    -880.8065    1533959.3    295.57543 
  217800    325.10416   -69451.746   -57570.902   -76849.736   -861.76932    1533959.3    292.17055 
  217900    323.02164    -69555.03   -57750.291   -77711.805   -892.28532    1533959.3    293.92995 
  218000    317.70565   -69483.674   -57873.207   -77179.903   -863.01481    1533959.3    287.09724 
  218100    306.30185   -68982.706   -57788.987   -75632.273   -797.59993    1533959.3    163.96752 
  218200    303.94164   -68566.593   -57459.128   -73763.681   -728.81814    1533959.3    227.32024 
  218300    303.89825   -68121.872   -57015.992    -70530.11   -604.08492    1533959.3    235.89467 
  218400    302.62262   -67567.915   -56508.653   -68733.659   -546.46125    1533959.3    278.78762 
  218500    308.16498   -67168.412   -55906.606   -66401.583   -469.12846    1533959.3    282.31924 
  218600    308.01043   -66569.536   -55313.377     -63422.4    -362.4756    1533959.3    266.66802 
  218700    312.12411   -66122.789   -54716.297   -61178.272   -288.85212    1533959.3    262.25661 
  218800     310.9346   -65492.177   -54129.156    -57925.78   -169.71015    1533959.3    276.76297 
  218900    313.29527   -64937.184   -53487.892   -54462.867   -43.581659    1533959.3    290.80078 
  219000     316.2044   -64390.045    -52834.44   -51583.326    55.925163    1533959.3    271.25196 
  219100    317.55757   -63815.639   -52210.583   -48635.239     159.8189    1533959.3    237.75441 
  219200    324.88983   -63561.236   -51688.224   -46860.242    215.81219    1533959.3    297.08595 
  219300    319.04879   -62854.698   -51195.146    -43589.59    339.97054    1533959.3    283.71119 
  219400    314.33017   -62136.809   -50649.697   -40424.261    457.07991    1533959.3    296.46145 
  219500     315.7361   -61578.362   -50039.872   -37769.656    548.48211    1533959.3    291.98018 
  219600    316.33942   -60927.362   -49366.823    -34830.01    649.79967    1533959.3    281.12485 
  219700    314.39882   -60108.772   -48619.152   -30252.324    821.00239    1533959.3    290.73729 
  219800    317.81564   -59485.578   -47871.091   -27696.016    901.83158    1533959.3    287.26811 
  219900     320.7644   -58917.764   -47195.515   -25192.696    983.53222    1533959.3    287.26378 
  220000    324.60216    -58574.56   -46712.061    -22896.68    1064.5543    1533959.3    263.18424 
  220100    334.70599   -58989.275   -46757.535   -25205.435    963.38494    1533959.3    279.84713 
  220200    333.07757   -59640.039   -47467.808   -28603.747     843.2289    1533959.3      291.773 
  220300     331.3152   -60391.072   -48283.247   -32597.446    701.15975    1533959.3    291.57767 
  220400    333.22866   -61118.244   -48940.492   -36307.169     564.7131    1533959.3    289.62668 
  220500    327.91238   -61473.186   -49489.717    -38703.83    482.13219    1533959.3    289.75513 
  220600    328.46514   -62064.279   -50060.609   -41372.108    388.37842    1533959.3    263.32898 
  220700    327.27355   -62608.326   -50648.202    -44371.58    280.56681    1533959.3    294.26402 
  220800    330.64392    -63264.46   -51181.167   -46846.624    193.75531    1533959.3    291.81644 
  220900    327.54938    -63654.26   -51684.056   -49090.111    115.95009    1533959.3    281.32019 
  221000    330.00882   -64198.563   -52138.479   -51733.013    18.124474    1533959.3    279.03726 
  221100    329.41045   -64615.523   -52577.307   -53675.673   -49.097293    1533959.3    245.04936 
  221200    325.52689   -64853.198   -52956.905    -54607.05   -73.761954    1533959.3     229.1272 
  221300    327.19478   -65226.034   -53268.788    -56555.36   -146.91067    1533959.3    256.53188 
  221400     318.4381   -65212.217   -53574.982   -57459.266    -173.6286    1533959.3     267.8976 
  221500    329.90756    -65458.22   -53401.837   -57922.111   -202.05754    1533959.3    285.36932 
  221600    329.91353   -65639.614   -53583.013   -58407.868   -215.67238    1533959.3    294.36522 
  221700    299.67396   -64495.549   -53544.045   -54451.617   -40.568711    1533959.3     285.0344 
  221800    307.97948   -64142.867    -52887.84   -52747.538    6.2715595    1533959.3    290.10485 
  221900    310.26394    -63558.11   -52219.598   -48481.859    167.07798    1533959.3    290.12331 
  222000    314.19206   -63108.365     -51626.3   -47149.284    200.12391    1533959.3    292.78792 
  222100    308.01174   -62169.164   -50912.958   -42808.205    362.28475    1533959.3    281.51411 
  222200     313.1292   -61705.517   -50262.295   -40097.933    454.34983    1533959.3    286.66104 
  222300    315.83238   -61134.496   -49592.487    -36722.13    575.30861    1533959.3    294.43982 
  222400    313.61354   -60289.943    -48829.02   -32911.027    711.53883    1533959.3    294.43031 
  222500    316.02378   -59646.633   -48097.629   -30250.012     797.7935    1533959.3    291.36682 
  222600    318.58793   -59039.417   -47396.706   -26040.899    954.61064    1533959.3    209.66949 
  222700    319.92039   -58476.392   -46784.987   -24168.565    1010.9605    1533959.3    286.59131 
  222800    334.94935   -58913.572   -46672.938   -25748.113    935.34563    1533959.3     279.2563 
  222900    334.28102   -59491.019   -47274.809   -28167.607    854.09733    1533959.3    289.80558 
  223000    334.24552   -60304.808   -48089.896   -33030.245    673.17065    1533959.3    285.53386 
  223100    328.46984   -60747.168   -48743.326   -34888.045    619.33501    1533959.3    235.93979 
  223200    326.45455   -61118.735   -49188.541   -37271.454    532.69717    1533959.3     284.0305 
  223300    326.64981   -61600.797   -49663.467   -39446.977    456.68003    1533959.3    283.90611 
  223400    327.05086   -62190.996   -50239.011   -43257.764    312.06369    1533959.3    296.27173 
  223500    331.16732   -62843.918   -50741.497   -45897.207    216.54115    1533959.3    299.11563 
  223600    324.00749   -63083.009   -51242.242   -46790.685    198.98583    1533959.3    250.13189 
  223700    322.68255   -63449.314   -51656.967   -49465.541    97.957328    1533959.3     301.1676 
  223800    324.66921   -63911.796   -52046.847   -51357.196    30.827601    1533959.3    298.17362 
  223900    325.15651   -64335.001   -52452.244   -52991.462    -24.10318    1533959.3    292.88073 
  224000    323.38277   -64628.804   -52810.867   -54408.978   -71.436001    1533959.3    291.43565 
  224100    321.63629   -64863.972    -53109.86   -56242.333   -140.02243    1533959.3    200.22264 
  224200    323.72581   -65237.571   -53407.099   -57770.499   -195.04525    1533959.3     295.1019 
  224300    330.79647   -65880.481   -53791.613   -59898.179   -272.96523    1533959.3    300.90574 
  224400    326.03477   -66139.888   -54225.035   -61739.324   -335.89084    1533959.3    288.39378 
  224500    325.76622   -66461.783   -54556.744   -63362.109   -393.60233    1533959.3    291.45165 
  224600    327.47049   -66777.097   -54809.776   -64441.176   -430.52633    1533959.3    233.58658 
  224700    323.96637   -66896.866   -55057.602   -65350.433   -460.09246    1533959.3    300.72818 
  224800    305.60438   -66177.287   -55009.057   -62239.614   -323.20792    1533959.3    301.66103 
  224900    306.42597   -65683.278   -54485.024   -60130.086   -252.33586    1533959.3    301.07875 
  225000    315.12493   -65470.356     -53954.2   -58652.841   -210.03057    1533959.3    295.53003 
  225100    322.86774   -65272.418   -53473.303   -56401.772   -130.90337    1533959.3    236.83052 
  225200    309.12274   -64202.636   -52905.828   -52413.365    22.013229    1533959.3    272.04526 
  225300    312.23567   -63683.414   -52272.845   -48926.608    149.57775    1533959.3     266.7306 
  225400    313.68299   -63080.197   -51616.737   -45643.363     267.0115    1533959.3     274.1454 
  225500    311.51106   -62301.588     -50917.5   -42679.031    368.26186    1533959.3    282.88209 
  225600    315.69817   -61796.305     -50259.2   -39927.739    461.81926    1533959.3    278.73482 
  225700    320.95241   -61432.463   -49703.344   -38072.007    519.92403    1533959.3    289.41144 
  225800    314.41272   -60444.486   -48954.358   -33396.314    695.44899    1533959.3    293.27823 
  225900    319.02384   -59923.527   -48264.887   -30862.713    777.88208    1533959.3    288.52114 
  226000     328.3297   -59708.014   -47709.294   -30113.673    786.52922    1533959.3    277.96324 
  226100    319.01476   -58616.488    -46958.18    -24150.13    1019.5263    1533959.3    266.05855 
  226200    323.44931   -58433.954   -46613.586   -23574.523    1029.8526    1533959.3    276.61056 
  226300    335.61549   -59126.295   -46861.317   -26510.669    909.67975    1533959.3    278.80634 
  226400     337.4249   -60028.356   -47697.254    -30779.11    756.24583    1533959.3    275.47383 
  226500    332.36585   -60561.561    -48415.34   -33888.093    649.37207    1533959.3    279.79523 
  226600    327.70884   -60991.888   -49015.857   -36037.035    580.15701    1533959.3    281.45876 
  226700    321.53327   -61295.164   -49544.818   -37494.843    538.63726    1533959.3    294.59244 
  226800     328.7922   -62161.635   -50146.012   -42875.071    325.01315    1533959.3     288.8295 
  226900    328.21221    -62660.31   -50665.883   -44912.314    257.18615    1533959.3    290.68671 
  227000    325.35284   -63023.904   -51133.972   -46538.725    205.40881    1533959.3    284.56795 
  227100    329.34637   -63577.144    -51541.27    -49393.51    96.005476    1533959.3    269.45741 
  227200    327.79045   -63935.251   -51956.237   -50836.997    50.030371    1533959.3     292.6588 
  227300      327.173   -64305.671   -52349.221   -53024.414   -30.181308    1533959.3    300.68765 
  227400    325.31005   -64551.124   -52662.756   -53730.527   -47.729668    1533959.3    273.23815 
  227500     324.9721    -64858.58   -52982.562    -56348.61    -150.4633    1533959.3    288.28001 
  227600    323.91285   -65149.613   -53312.305   -57500.027   -187.19236    1533959.3     300.6036 
  227700    328.93935   -65651.355   -53630.355   -59296.498   -253.27821    1533959.3    300.65424 
  227800    325.51399   -65894.981    -53999.16   -60538.449   -292.30805    1533959.3    300.68484 
  227900    329.46535   -66309.207   -54268.984   -62764.826   -379.76654    1533959.3    300.11019 
  228000    324.56166   -66476.891   -54615.872   -63818.666   -411.36747    1533959.3    295.72151 
  228100    330.68597    -67036.09    -54951.26   -66339.406   -509.05335    1533959.3    262.81286 
  228200    323.82629   -67185.784   -55351.639   -66951.417   -518.51335    1533959.3    287.58345 
  228300     320.1583   -67337.458   -55637.359   -67727.051   -540.41264    1533959.3     285.4404 
  228400    325.59761   -67660.504   -55761.626    -69023.88   -592.82649    1533959.3    296.68562 
  228500    323.93992   -67774.529   -55936.231   -69855.744   -622.20618    1533959.3    295.81871 
  228600    324.90454   -67972.528   -56098.979   -71134.622   -672.09747    1533959.3    299.14677 
  228700    319.21117   -67975.306    -56309.82   -70839.464   -649.47919    1533959.3    296.76581 
  228800    327.43253   -68318.319   -56352.386    -72324.85   -713.97369    1533959.3    295.14904 
  228900    327.37782   -68494.894    -56530.96   -72600.499   -718.31294    1533959.3     296.9217 
  229000    325.24346    -68640.56   -56754.625   -73869.999   -765.06206    1533959.3    288.58109 
  229100    325.57825   -68857.142   -56958.972   -74630.324   -789.91444    1533959.3    227.63237 
  229200    326.89932   -69073.898    -57127.45   -75552.928    -823.6241    1533959.3    277.20012 
  229300    325.04373   -69201.983   -57323.347   -75994.665   -834.61323    1533959.3     306.8616 
  229400    324.25524   -69361.278   -57511.457   -76720.093   -858.63146    1533959.3    292.10625 
  229500    324.12701   -69512.432   -57667.298   -77035.499   -865.76406    1533959.3     285.5953 
  229600    323.00122   -69600.364   -57796.371   -77003.893    -858.5817    1533959.3    265.61055 
  229700     322.0881   -69676.215   -57905.592   -77944.482   -895.74405    1533959.3    306.08365 
  229800    306.25972   -69083.794   -57891.615   -76061.664   -812.20632    1533959.3    303.05424 
  229900    303.29158   -68627.746   -57544.037   -73498.995   -713.19112    1533959.3    289.08331 
  230000    305.59138   -68244.578   -57076.823   -71238.008   -633.00898    1533959.3     294.1792 
  230100    306.06324    -67762.64   -56577.642    -68445.55   -530.49885    1533959.3    210.16969 
  230200    309.52737   -67325.155   -56013.561   -66954.197   -489.04953    1533959.3    291.84203 
  230300    314.27833   -66921.349   -55436.132   -64211.466    -392.2599    1533959.3    295.06184 
  230400    318.96302   -66603.791   -54947.374   -62725.492   -347.68411    1533959.3    286.54785 
  230500    319.57157     -66216.6   -54537.943    -60361.43    -260.3115    1533959.3    278.72463 
  230600      316.947   -65722.164   -54139.421   -58133.664    -178.5438    1533959.3    272.90481 
  230700    318.72265   -65339.841   -53692.208   -56273.336   -115.37719    1533959.3    273.52521 
  230800    315.14867   -64714.831   -53197.808   -53231.072   -1.4869315    1533959.3    280.78139 
  230900    312.72463   -64076.674   -52648.236   -49608.701    135.86809    1533959.3    284.25977 
  231000    314.71648   -63534.973   -52033.744   -48098.834    175.89159    1533959.3     286.1795 
  231100    316.00225   -62979.354   -51431.137   -43927.929    335.39552    1533959.3    257.32668 
  231200    317.40387   -62384.687   -50785.248   -42344.383    377.30907    1533959.3    289.31841 
  231300    314.69763   -61617.447   -50116.907   -38705.183     510.1073    1533959.3    288.95386 
  231400    318.18343    -61101.39   -49473.462   -35641.106    618.31023    1533959.3    288.17859 
  231500    315.92579   -60286.522   -48741.099   -31831.974    755.84269    1533959.3    283.55372 
  231600    320.64792   -59815.069   -48097.077   -29064.576    850.75819    1533959.3    282.89506 
  231700    320.08118    -59124.44   -47427.159   -26471.245    936.73532    1533959.3    289.15606 
  231800    321.92468   -58692.952   -46928.301   -24354.945    1009.0354    1533959.3    284.61469 
  231900    334.54012   -59050.092   -46824.413   -25804.507    939.59575    1533959.3    288.18711 
  232000    334.63625   -59369.866   -47140.675    -27219.38     890.4875    1533959.3    275.79499 
  232100    335.79254   -60216.916   -47945.468   -31593.206    730.95076    1533959.3    276.76991 
  232200    327.48846   -60571.299   -48603.321   -33856.604    659.18245    1533959.3    285.35553 
  232300    329.19079   -61266.718   -49236.528   -36824.354     554.8277    1533959.3    282.78863 
  232400    323.93209   -61540.052   -49702.041   -38603.017    496.12949    1533959.3    280.48284 
  232500    325.69644   -62094.443   -50191.954   -41875.598    371.74349    1533959.3     281.1746 
  232600    325.50346    -62552.04   -50656.604   -43551.714    317.59058    1533959.3    293.47544 
  232700    323.94082   -62961.385   -51123.055   -46044.219    227.02543    1533959.3    297.05586 
  232800    325.56219   -63386.614   -51489.032   -48300.124    142.54508    1533959.3    292.07228 
  232900    327.66747   -63887.607   -51913.088   -50670.947    55.524053    1533959.3    290.66898 
  233000    325.47355    -64203.33   -52308.987   -52198.066    4.9581921    1533959.3    290.74676 
  233100    327.42661   -64601.257   -52635.539   -53682.382   -46.794168    1533959.3    280.40971 
  233200     325.4736    -64871.84   -52977.495   -55191.763   -98.978419    1533959.3    296.85298 
  233300    329.43366   -65366.461   -53327.396   -57775.914   -198.85002    1533959.3     292.7589 
  233400    326.60472   -65539.316   -53603.634     -58286.3   -209.31648    1533959.3    291.64478 
  233500    332.74977    -66086.95   -53926.699   -60798.191    -307.1576    1533959.3    303.57672 
  233600    304.25753   -65218.221   -54099.212   -57489.627   -151.55254    1533959.3    272.06802 
  233700    307.87291   -64859.688   -53608.555   -56202.398   -115.94551    1533959.3    300.83797 
  233800     308.5697   -64337.899   -53061.302   -53305.841   -10.930941    1533959.3    295.34066 
  233900    308.72606   -63737.241    -52454.93   -50497.955    87.477341    1533959.3    286.43357 
  234000    312.26296   -63237.216    -51825.65    -47810.06    179.49801    1533959.3    285.19042 
  234100    313.17225   -62594.292   -51149.497   -44269.861    307.52168    1533959.3    256.83569 
  234200     312.2329   -61866.228    -50455.76   -40282.561    454.74489    1533959.3    262.04901 
  234300     315.1437   -61286.468   -49769.626   -37293.934    557.66697    1533959.3    288.41718 
  234400    314.42234   -60481.126   -48990.647    -34016.43    669.35174    1533959.3    290.20079 
  234500    324.77611   -60313.671   -48444.816   -32301.783    721.59815    1533959.3    285.86859 
  234600    317.36955   -59306.802   -47708.617   -27821.202    888.97309    1533959.3    284.22817 
  234700     322.4933   -58962.406   -47176.975    -26135.22     940.5724    1533959.3    285.42486 
  234800    321.24362   -58383.043   -46643.281   -24214.974    1002.5517    1533959.3    273.30991 
  234900    329.10462   -58647.215   -46620.175   -23966.531    1012.6243    1533959.3    290.14519 
  235000    336.00189   -59672.679    -47393.58   -29171.508    814.53177    1533959.3    275.30766 
  235100    331.38076   -60252.047   -48141.826    -32610.37    694.26048    1533959.3    277.47648 
  235200    322.37096   -60543.574   -48762.614   -34154.689    652.97838    1533959.3    286.07215 
  235300    323.74447   -61223.693   -49392.538   -37529.494    530.28143    1533959.3    297.90022 
  235400    328.95721   -61851.932    -49830.28   -40844.511    401.66639    1533959.3    293.65893 
  235500    329.18405   -62247.135   -50217.193   -42728.198    334.76017    1533959.3    289.09587 
  235600    327.65532    -62566.03   -50591.954   -44069.082    291.57424    1533959.3    260.00642 
  235700    329.18222   -63082.107   -51052.231   -46333.699     210.9197    1533959.3    292.23264 
  235800    323.37408   -63196.084   -51378.465   -47343.036    180.38485    1533959.3    291.41196 
  235900    313.90729   -63073.807    -51602.15    -46742.21    217.24069    1533959.3    293.88073 
  236000    329.00307   -63758.479    -51735.15   -49690.284    91.406079    1533959.3    285.43457 
  236100    327.28677   -63967.432   -52006.824   -50765.052    55.507574    1533959.3    283.87729 
  236200    328.58902   -64408.923   -52400.726    -53112.86   -31.832582    1533959.3    286.18028 
  236300    326.76978   -64685.753   -52744.039    -54976.68   -99.799693    1533959.3    296.66275 
  236400    326.57082   -65025.689   -53091.247   -56364.741   -146.32611    1533959.3    294.94523 
  236500    321.46154   -65218.343   -53470.617   -57711.646    -189.5752    1533959.3    294.83389 
  236600    329.27866    -65809.45    -53776.05   -60289.866   -291.16941    1533959.3    280.53256 
  236700    329.88483   -66191.847   -54136.294   -62248.009   -362.59594    1533959.3    300.68937 
  236800     324.8684   -66365.504   -54493.276   -62606.986   -362.68516    1533959.3    294.01216 
  236900    320.07307   -66447.654   -54750.669   -63255.001   -380.14602    1533959.3     290.5836 
  237000    325.10359   -66769.554    -54888.73   -65327.806   -466.62965    1533959.3    288.22434 
  237100    323.15261   -66925.582   -55116.057   -65801.556   -477.64486    1533959.3    262.30138 
  237200    324.56989   -67130.485   -55269.166   -66352.572   -495.43138    1533959.3    291.83614 
  237300     321.5755   -67150.401   -55398.511   -67200.255   -527.54131    1533959.3    283.20661 
  237400    328.01152   -67458.955   -55471.862   -67562.592   -540.45905    1533959.3    285.12702 
  237500    327.23187   -67635.813   -55677.212   -68145.195   -557.32236    1533959.3    260.02593 
  237600    324.75528   -67713.666   -55845.572   -68821.942   -580.04745    1533959.3    271.70073 
  237700    320.33809   -67733.511   -56026.842   -69308.587   -593.69777    1533959.3    283.97474 
  237800    330.18751   -68144.015   -56077.401   -71169.575   -674.62443    1533959.3    284.15154 
  237900     325.9868   -68212.199   -56299.099   -71112.678   -662.17118    1533959.3    278.77354 
  238000    323.10928   -68270.634   -56462.692   -72024.378   -695.61176    1533959.3    234.99437 
  238100    323.61108   -68402.241   -56575.961   -71895.799   -684.80108    1533959.3    235.72352 
  238200    298.01542   -67787.416   -56896.523   -70123.864   -591.26588    1533959.3    262.88385 
  238300    293.05736   -67286.199   -56576.497   -68172.615   -518.34979    1533959.3    292.76237 
  238400    294.32078   -66765.025   -56009.151   -64912.638   -397.98839    1533959.3    265.93136 
  238500    300.42827   -66316.022   -55336.951   -62534.482   -321.73164    1533959.3    271.70654 
  238600    310.29449   -65993.953   -54654.324   -60560.181    -263.9935    1533959.3    274.04026 
  238700    315.51876   -65569.979    -54039.43   -58563.363   -202.22107    1533959.3    285.00419 
  238800    310.86803   -64834.691   -53474.102   -54678.271   -53.826669    1533959.3    277.92824 
  238900    313.13237   -64314.049   -52870.711    -51932.98    41.916812    1533959.3    284.85727 
  239000    317.20166   -63822.059    -52230.01   -49177.601    136.44352    1533959.3    293.98022 
  239100    308.64405   -62778.881   -51499.567   -43889.215    340.18489    1533959.3    280.20627 
  239200    314.67886   -62239.796   -50739.941   -41731.011    402.70176    1533959.3    302.05097 
  239300    319.25395   -61680.096   -50013.046   -38244.225    526.06965    1533959.3    295.00435 
  239400    315.47545   -60742.586    -49213.62   -34423.572    661.11936    1533959.3    293.11058 
  239500    317.34325   -60081.198   -48483.974   -30813.285    789.88481    1533959.3    296.70514 
  239600    318.71096   -59415.267   -47768.061    -27096.71    924.01522    1533959.3    272.80079 
  239700    321.12569   -58890.134   -47154.682   -24589.911    1008.6517    1533959.3    288.42293 
  239800    328.79932   -58795.965   -46780.082   -24713.701     986.3735    1533959.3    288.11129 
  239900     336.9854   -59144.039   -46828.998   -25707.628    944.13122    1533959.3    284.47724 
  240000    333.85422   -59736.193   -47535.581   -28691.124    842.35255    1533959.3    283.33268 
  240100    331.51392   -60492.864   -48377.777   -32474.178    710.89536    1533959.3    257.15866 
  240200    328.12693   -61073.497   -49082.187   -35727.852    596.94256    1533959.3    283.27336 
  240300    327.91772   -61673.091   -49689.427   -39226.066    467.71518    1533959.3    290.40051 
  240400    327.30161   -62192.363   -50231.214   -41923.944    371.33731    1533959.3    283.60185 
  240500    324.46259   -62537.126   -50679.728    -43341.44    328.02357    1533959.3    268.53703 
  240600    324.24637   -62940.722   -51091.225   -45836.833    234.87284    1533959.3     282.7934 
  240700    322.59533   -63270.842   -51481.682   -46888.078    205.33539    1533959.3    293.77308 
  240800    308.76145   -63006.856   -51723.252     -47305.5    197.47476    1533959.3    290.92927 
  240900    308.74472   -62430.811   -51147.818   -43508.902    341.46172    1533959.3    286.96229 
  241000    309.44721   -61650.547   -50341.882   -39463.192     486.2805    1533959.3    287.39665 
  241100    310.73779   -60861.079    -49505.25   -35415.584    629.81208    1533959.3    267.70968 
  241200    314.02352   -60208.086   -48732.181    -33333.54    688.32363    1533959.3    268.93805 
  241300    320.69673   -59779.984   -48060.209   -30434.298    787.88322    1533959.3    279.99116 
  241400    323.64826   -59250.114   -47422.475   -26625.347     929.6375    1533959.3    286.54452 
  241500    324.36702   -58721.313   -46867.407   -24546.947    997.73088    1533959.3    286.04191 
  241600    319.80547   -58328.739   -46641.534   -22743.564     1068.246    1533959.3    281.59103 
  241700    326.49424   -59065.518   -47133.874   -26169.915     937.0949    1533959.3    282.98305 
  241800    332.52116   -60157.215   -48005.318   -31879.182    720.84285    1533959.3    283.94821 
  241900    331.25276    -60810.56   -48705.017   -34828.717    620.27453    1533959.3    283.63004 
  242000    328.28593   -61287.894   -49290.773   -38444.087    484.84992    1533959.3    281.15952 
  242100    325.33771    -61693.58   -49804.201   -39468.004    462.03092    1533959.3    261.85547 
  242200    320.71988   -61980.933   -50260.311   -41682.129    383.44719    1533959.3    297.57748 
  242300    323.70853   -62511.979   -50682.138   -44636.532    270.24028    1533959.3    292.47799 
  242400     330.4878   -63189.769   -51112.181   -46908.022    187.92713    1533959.3    294.32721 
  242500    332.61866   -63797.149   -51641.689   -50650.516    44.305734    1533959.3    283.07912 
  242600    333.48719   -64346.838   -52159.638   -53015.848   -38.272848    1533959.3    209.31102 
  242700    322.10209   -64386.303   -52615.168   -53468.002   -38.121888    1533959.3     296.7887 
  242800     325.7898   -64859.512   -52953.612   -55580.604   -117.42732    1533959.3    268.51485 
  242900    324.31392   -65167.843   -53315.878   -56847.918   -157.88318    1533959.3    248.25712 
  243000    328.04339   -65648.587    -53660.33   -59627.365   -266.72817    1533959.3    276.73923 
  243100    325.53532   -65903.437   -54006.836   -60903.682   -308.29093    1533959.3    271.62032 
  243200    325.91193   -66205.282   -54294.918   -62262.715   -356.16278    1533959.3    293.25527 
  243300    320.03797   -66295.202   -54599.501   -62929.543   -372.35522    1533959.3    288.17028 
  243400    325.12246   -66620.437   -54738.923   -64091.293   -418.05357    1533959.3    287.38109 
  243500    321.00237   -66652.818   -54921.873   -64323.804   -420.26899    1533959.3    294.09256 
  243600    298.38713    -66032.62   -55128.143   -62205.807   -316.37361    1533959.3     255.4532 
  243700    306.86568    -65869.03   -54654.707   -60816.719   -275.44371    1533959.3    294.24585 
  243800     308.6649   -65358.271   -54078.195   -57432.334   -149.93096    1533959.3    292.74521 
  243900    311.52948   -64863.803   -53479.042   -55808.956   -104.14783    1533959.3    295.17417 
  244000    313.97659   -64337.135   -52862.945   -52975.805   -5.0448784    1533959.3    292.64492 
  244100    317.52216   -63829.741   -52225.979    -49734.43    111.37294    1533959.3    256.97951 
  244200    319.78815   -63332.664   -51646.092   -46507.406     229.7007    1533959.3    262.29367 
  244300    321.14724   -62835.745   -51099.506   -44497.425    295.11488    1533959.3    284.31237 
  244400    309.57953   -61608.727   -50295.226   -38940.864    507.54323    1533959.3    286.49754 
  244500     310.3161   -60815.875   -49475.457   -35378.978    630.11659    1533959.3     291.4237 
  244600    315.37526   -60256.626   -48731.322   -31962.503    749.57094    1533959.3    288.15286 
  244700    322.67371    -59904.76   -48112.736   -30382.514    792.54593    1533959.3    285.69879 
  244800    318.21043   -59045.919   -47417.004   -26689.402    926.52967    1533959.3    282.28504 
  244900    325.65552   -58851.794   -46950.801    -26091.16    932.43187    1533959.3    274.92167 
  245000    325.94264   -58467.986     -46556.5   -23023.115     1051.949    1533959.3    268.80774 
  245100    339.74122   -59465.096   -47049.344   -27561.004    871.13434    1533959.3     246.1787 
  245200     333.1823   -60005.378    -47829.32   -31278.596    739.82208    1533959.3    268.27561 
  245300    331.95881   -60718.866   -48587.521   -33940.059    654.74568    1533959.3    263.71376 
  245400    330.39917   -61300.794   -49226.445   -37469.405    525.54301    1533959.3    264.89226 
  245500    318.67476   -61326.245   -49680.362   -38202.303    513.07248    1533959.3    259.01494 
  245600    323.39313   -61998.593   -50180.278   -41764.093    376.20587    1533959.3    288.29923 
  245700    323.41141   -62400.188   -50581.205   -43686.598     308.1909    1533959.3    274.08073 
  245800    325.02105    -62830.07   -50952.263   -45480.318    244.59747    1533959.3     263.3685 
  245900    328.21159   -63391.056   -51396.651   -47946.907    154.20454    1533959.3     290.4351 
  246000    325.81143   -63767.028   -51860.336   -49885.245    88.287155    1533959.3    288.44217 
  246100    328.66574   -64312.174   -52301.173   -53197.581   -40.069697    1533959.3    288.39557 
  246200    327.50359     -64651.3   -52682.769   -54927.718   -100.34989    1533959.3    304.62069 
  246300    326.73248   -64965.727   -53025.376   -55969.276   -131.59315    1533959.3     299.7368 
  246400      327.172   -65279.473    -53323.06   -57108.359   -169.20395    1533959.3    297.32983 
  246500    323.85849    -65489.59   -53654.269   -58151.367   -201.02157    1533959.3    295.69087 
  246600    328.15046   -65794.714   -53802.544   -60275.173   -289.32838    1533959.3    279.86823 
  246700    328.98576   -66037.929   -54015.233   -60825.598   -304.42521    1533959.3    296.58094 
  246800    326.30488   -66259.442   -54334.718   -62430.697   -361.89255    1533959.3    297.16804 
  246900     321.1435   -66388.147   -54652.044   -63565.425   -398.43065    1533959.3    299.14592 
  247000    334.30154   -67095.347   -54878.387    -66512.79   -520.06109    1533959.3    295.67523 
  247100    326.08406   -67171.518   -55254.863   -66349.815   -495.94748    1533959.3    277.31871 
  247200    320.36109   -67230.781   -55523.271   -67408.132   -531.25664    1533959.3     303.3271 
  247300    322.09844   -67438.701     -55667.7   -67792.388   -541.97699    1533959.3    296.47277 
  247400    326.09657   -67758.908   -55841.796   -68977.857   -587.18565    1533959.3    276.49605 
  247500    322.54427   -67829.639   -56042.346   -69271.723   -591.35689    1533959.3    290.69336 
  247600    327.94773   -68121.025   -56136.263   -71146.861   -670.97799    1533959.3    279.07551 
  247700     328.8742   -68370.994   -56352.375    -71645.74   -683.61775    1533959.3    286.01577 
  247800    331.70639   -68705.217   -56583.096   -73327.759   -748.49118    1533959.3    287.98449 
  247900    334.43174   -69031.565   -56809.847   -74757.802   -802.27864    1533959.3    285.99042 
  248000      328.249   -69165.553   -57169.782   -75745.195   -830.32624    1533959.3    283.45159 
  248100    325.68296   -69356.558   -57454.562    -76397.74   -846.76545    1533959.3     248.8386 
  248200    327.10935   -69585.453    -57631.33   -77889.976   -905.56721    1533959.3    263.34634 
  248300    316.86104     -69477.7   -57898.098   -77478.506   -875.24975    1533959.3    287.87834 
  248400     307.1879   -69260.231   -58034.132   -76763.496   -837.20788    1533959.3    282.59277 
  248500    310.40124   -69033.718   -57690.188   -75151.115   -780.50837    1533959.3    239.79606 
  248600    312.53189   -68735.314    -57313.92   -73585.735    -727.3547    1533959.3    267.55718 
  248700    314.55948   -68448.668   -56953.177   -72445.039   -692.49063    1533959.3    277.79938 
  248800    315.28222   -68120.204     -56598.3   -70184.458    -607.3051    1533959.3    249.68607 
  248900    307.57312   -67486.089   -56245.912   -67941.247   -522.78481    1533959.3    260.17061 
  249000     308.7938   -67006.854   -55722.068    -65240.83   -425.49135    1533959.3    271.18655 
  249100    314.44135   -66668.959   -55177.784   -63198.395   -358.52357    1533959.3    258.74825 
  249200    312.18482   -66107.122   -54698.412   -60150.578   -243.71338    1533959.3    266.04944 
  249300    319.85473   -65857.099   -54168.094   -58998.676   -215.92836    1533959.3    294.18167 
  249400    311.56485    -65004.02   -53617.966    -54691.91   -48.005606    1533959.3    291.62754 
  249500     313.4452   -64472.059   -53017.289    -52209.94    36.088691    1533959.3    289.64948 
  249600    314.64828   -63937.467    -52438.73    -49373.25     137.0278    1533959.3    214.19739 
  249700    325.89912   -63819.918   -51910.022   -48392.425    157.23762    1533959.3    265.02984 
  249800    314.34565   -62809.616   -51321.939    -42944.52      374.473    1533959.3    266.41598 
  249900     314.9238   -62267.254   -50758.448   -41460.066    415.64033    1533959.3    262.38113 
  250000    310.38258   -61334.416   -49991.567    -36836.54    588.03343    1533959.3    281.72967 
  250100    313.35406   -60735.265   -49283.825   -33320.136    713.58141    1533959.3    262.38736 
  250200    320.37207   -60389.271    -48681.36   -31717.772    758.27718    1533959.3    294.18869 
  250300    320.42644   -59748.683   -48038.785   -29698.394    819.82066    1533959.3    283.52382 
  250400    326.05793   -59440.329    -47524.63   -27655.225    888.16803    1533959.3    251.30491 
  250500    323.62887   -59036.723   -47209.793   -25744.483    959.50542    1533959.3    279.29907 
  250600    320.03394   -58588.499   -46892.944   -23846.227    1030.1948    1533959.3    285.98808 
  250700    340.68538   -59900.748   -47450.493   -29443.128    804.93427    1533959.3    289.87268 
  250800    336.87163   -60564.332   -48253.448   -32949.111    684.10822    1533959.3    288.54457 
  250900    326.11276   -60771.151   -48853.448   -34535.571    640.01315    1533959.3    283.79105 
  251000    328.39349   -61453.361   -49452.309   -37564.861    531.37229    1533959.3    279.28345 
  251100    326.79742   -61869.127   -49926.403   -40389.798    426.28894    1533959.3    278.39736 
  251200    322.79736    -62190.13   -50393.587   -41815.791    383.42992    1533959.3    299.68904 
  251300    328.42094    -62820.72   -50818.665   -45123.492    254.57581    1533959.3    298.02087 
  251400    327.65937   -63163.709   -51189.486   -47092.938    183.11683    1533959.3    299.53046 
  251500    328.29676   -63607.998   -51610.481   -48834.392    124.09199    1533959.3    291.97245 
  251600    327.07152   -64024.582   -52071.842   -50836.282    55.229873    1533959.3     252.4443 
  251700    323.51106   -64317.869   -52495.244   -52725.552   -10.294809    1533959.3    283.52459 
  251800    326.36923   -64769.081   -52842.005   -54473.121   -72.911335    1533959.3    285.69393 
  251900    326.65636   -65105.787   -53168.218   -56246.175   -137.58554    1533959.3    289.83662 
  252000    325.34738   -65373.512   -53483.779   -57941.067   -199.24201    1533959.3    290.83284 
  252100    326.38193   -65664.393   -53736.853   -59584.494   -261.39122    1533959.3    274.52167 
  252200    325.70811   -65898.442   -53995.527   -59806.675   -259.75999    1533959.3    297.30496 
  252300    323.73615   -66082.299   -54251.449   -61143.881   -308.09368    1533959.3    297.86468 
  252400    329.41818   -66555.084   -54516.585   -63160.941   -386.40516    1533959.3    283.01112 
  252500     329.9435   -66842.938   -54785.241    -64418.61   -430.61431    1533959.3    282.81494 
  252600    323.10994   -66905.793   -55097.827   -65583.145   -468.69668    1533959.3     267.6101 
  252700    325.57058   -67233.977   -55336.088   -66417.603   -495.34685    1533959.3    290.33217 
  252800     326.2615   -67443.465   -55520.326   -67612.238   -540.51193    1533959.3    286.76884 
  252900    321.24276   -67488.594   -55748.864   -68180.086   -555.67914    1533959.3    285.19197 
  253000    322.95527   -67677.327   -55875.014   -68865.178   -580.66403    1533959.3    277.45574 
  253100    325.29077   -67970.145   -56082.482   -70125.961   -627.74752    1533959.3    269.54469 
  253200    327.38554   -68240.201   -56275.984    -70907.67    -654.0405    1533959.3    244.92687 
  253300    328.60829   -68497.978   -56489.076   -72517.029   -716.45401    1533959.3    236.89446 
  253400    329.04462   -68748.117    -56723.27   -73441.895   -747.32726    1533959.3    282.00945 
  253500    331.50837   -69052.836   -56937.951   -75452.414   -827.60171    1533959.3    296.83092 
  253600    327.88262   -69222.449   -57240.067   -76105.316   -843.28199    1533959.3    279.99527 
  253700    328.37322   -69454.312   -57454.001   -77399.206    -891.5563    1533959.3    261.13618 
  253800    320.82837   -69469.059   -57744.473    -77393.92   -878.33586    1533959.3    291.02495 
  253900    323.14259   -69647.053   -57837.894   -77964.816   -899.67911    1533959.3    303.11578 
  254000    313.78476   -69324.027   -57856.847    -76633.62   -839.32708    1533959.3    304.52537 
  254100    313.75016   -68990.262   -57524.346   -75322.929   -795.60168    1533959.3    272.01103 
  254200     310.6776    -68548.93     -57195.3   -73201.207   -715.46856    1533959.3     284.8654 
  254300    314.25818   -68271.966   -56787.485   -71380.285   -652.30227    1533959.3    280.74192 
  254400    309.61983   -67741.765   -56426.792    -68566.38   -542.64302    1533959.3    280.89346 
  254500    309.07176   -67257.664   -55962.719   -65885.423   -443.54766    1533959.3    272.47365 
  254600    312.06518   -66829.176   -55424.838   -64327.793   -397.96462    1533959.3    233.46423 
  254700    312.23298   -66303.082   -54892.611   -60912.469   -269.08935    1533959.3     291.0403 
  254800    313.50404   -65820.977   -54364.056   -58988.979   -206.73537    1533959.3    286.94403 
  254900    317.51954   -65424.965   -53821.299   -56416.425    -116.0029    1533959.3    291.43221 
  255000    310.96676   -64601.552   -53237.356   -52073.397    52.029291    1533959.3    285.95532 
  255100    318.01176   -64264.379   -52642.724    -50627.06    90.100758    1533959.3    243.41617 
  255200    318.75673   -63693.225   -52044.346   -47508.267    202.76404    1533959.3    296.06824 
  255300    318.97306   -63122.356   -51465.571    -45069.16    285.92136    1533959.3    287.45889 
  255400    315.51913   -62376.559   -50845.997   -41756.737     406.2925    1533959.3    293.83935 
  255500    317.22189   -61717.203   -50124.414   -38458.143    521.48561    1533959.3    283.35182 
  255600    316.49685     -60939.8   -49373.507   -33793.576    696.42736    1533959.3    291.11403 
  255700    318.52103   -60386.545   -48746.279   -31925.905    751.87547    1533959.3    294.79659 
  255800     318.3411   -59723.604   -48089.914   -28853.008    859.89514    1533959.3    290.84313 
  255900    324.11187    -59482.14   -47637.559   -26599.858    940.39117    1533959.3    289.74832 
  256000    320.41956   -58784.266   -47074.619   -23827.849    1039.1372    1533959.3    280.75301 
  256100    336.75946    -59266.21   -46959.426   -26555.933    912.04194    1533959.3    264.92522 
  256200    339.29573   -59579.971     -47180.5   -26715.852    914.77554    1533959.3     295.6148 
  256300    333.66889   -60125.238   -47931.398   -31239.932    746.11327    1533959.3     294.1402 
  256400    329.48998   -60696.773    -48655.65   -33546.186    675.39735    1533959.3    285.56575 
  256500    324.59524   -61113.363   -49251.117   -35890.212    597.23622    1533959.3    291.56571 
  256600    324.27863   -61663.931   -49813.255   -38597.019    501.36893    1533959.3    292.83595 
  256700     327.4957   -62308.478   -50340.235   -41976.555     373.8589    1533959.3    293.07126 
  256800    322.75215    -62553.38   -50758.489   -43596.198    320.15644    1533959.3    294.10287 
  256900     310.7147   -62452.115    -51097.13   -43335.531    346.94567    1533959.3    294.57692 
  257000    330.28511   -63404.565   -51334.385   -47394.177    176.12839    1533959.3     290.5685 
  257100    330.60553   -63825.586   -51743.696   -48634.606    138.97721    1533959.3    250.73898 
  257200    321.41411   -63936.482    -52190.49   -49724.563    110.22763    1533959.3    305.55073 
  257300    326.47037   -64502.206   -52571.434   -52712.597   -6.3100242    1533959.3    301.33269 
  257400     324.9106   -64773.697   -52899.927   -54398.179   -66.972326    1533959.3    301.46091 
  257500     323.5233   -65035.259   -53212.187   -55612.252   -107.28358    1533959.3    301.65908 
  257600    325.33613   -65378.239   -53488.918   -56831.733   -149.42478    1533959.3     224.0194 
  257700    327.69574   -65758.041   -53782.489   -58473.763   -209.70129    1533959.3    300.92106 
  257800    326.53952   -66017.202   -54083.903   -60417.221   -283.10111    1533959.3     300.1336 
  257900    325.50679    -66249.82   -54354.262   -60999.398    -297.0395    1533959.3    298.57968 
  258000     325.3117   -66529.506   -54641.077   -62427.045   -348.03497    1533959.3     295.4324 
  258100    328.19192   -66887.684   -54893.999   -64496.097   -429.21648    1533959.3       224.35 
  258200    315.33201   -66747.762   -55224.039   -64121.094    -397.7009    1533959.3    274.63707 
  258300    326.99463    -67162.96   -55213.029   -65689.086    -468.2827    1533959.3    294.50473 
  258400    326.75425   -67359.333   -55418.187   -67113.716   -522.79346    1533959.3    280.40896 
  258500    328.52342   -67636.904   -55631.104   -67952.469   -550.76852    1533959.3    293.25178 
  258600    324.51047   -67756.546   -55897.398   -69078.203   -589.18571    1533959.3    296.18825 
  258700    327.27244    -68015.38   -56055.297   -70070.128   -626.46691    1533959.3    300.29949 
  258800    324.31238   -68173.247   -56321.338   -70975.593   -655.04936    1533959.3    305.79533 
  258900    328.58925   -68504.886    -56496.68   -72080.723   -696.61114    1533959.3    305.74963 
  259000    330.64473   -68754.167   -56670.844   -74020.418   -775.53086    1533959.3     300.9973 
  259100    331.83105   -69011.456   -56884.779   -74124.242   -770.60888    1533959.3    253.06589 
  259200    328.22872   -69154.741   -57159.711   -74931.014    -794.3823    1533959.3    309.63688 
  259300    325.99293   -69323.639   -57410.315    -76357.59   -846.94857    1533959.3    293.60548 
  259400      323.178   -69451.734    -57641.28   -76779.483   -855.48306    1533959.3    290.06773 
  259500    324.82754   -69639.906   -57769.171   -77568.923   -885.05454    1533959.3    292.53123 
  259600    302.47395   -69177.164   -58123.335   -76172.027   -806.78163    1533959.3    210.12284 
  259700    304.77391    -68940.25   -57802.369   -75216.869   -778.43308    1533959.3    303.98287 
  259800    309.64585   -68685.928   -57370.004   -73605.428   -725.72808    1533959.3    300.36788 
  259900    311.56036   -68325.246   -56939.356    -71473.94   -649.70001    1533959.3    298.90992 
  260000    309.49525   -67809.689   -56499.269   -69083.321   -562.51068    1533959.3    251.01524 
  260100    309.33835   -67325.594   -56020.907    -66441.95   -465.82359    1533959.3    262.11566 
  260200     305.6307   -66668.749   -55499.557   -63145.086   -341.75728    1533959.3    279.42951 
  260300    310.24122   -66235.062    -54897.38   -60811.094   -264.34468    1533959.3      294.244 
  260400    309.78547   -65612.766    -54291.74   -58208.686   -175.08864    1533959.3    280.64518 
  260500    311.75812   -65061.231   -53668.114   -55237.226   -70.139744    1533959.3     285.7566 
  260600    316.07077   -64590.045   -53039.324   -52039.042    44.712913    1533959.3    236.49161 
  260700    317.25393   -63976.431   -52382.471   -49260.318    139.56117    1533959.3    276.21727 
  260800    313.50366   -63148.312   -51691.405   -45014.637     298.4534    1533959.3    267.53193 
  260900    307.32908   -62183.817   -50952.559   -40787.109    454.39847    1533959.3    275.69257 
  261000    312.67046   -61653.484   -50227.026   -37877.104    552.04498    1533959.3    262.56016 
  261100    314.85215   -60944.315   -49438.128   -34571.295    664.55164    1533959.3    277.45648 
  261200    318.96158   -60390.488   -48734.122   -32063.513    745.18096    1533959.3    280.58041 
  261300    318.74878   -59608.455   -47959.867   -28199.624    883.28846    1533959.3    284.01415 
  261400    317.83437   -58877.887   -47262.715   -24658.881    1010.3978    1533959.3    280.84851 
  261500    324.09273   -58685.604   -46841.722   -23225.257    1055.6627    1533959.3    278.67722 
  261600    323.39385   -58478.902   -46660.561   -22276.247    1089.9857    1533959.3    259.88946 
  261700    336.42246   -59826.083   -47531.615   -28602.193    846.15051    1533959.3    284.03204 
  261800    330.76486    -60398.35   -48310.638   -32137.339      722.951    1533959.3    280.17801 
  261900    317.46649    -60493.13   -48891.403   -33675.708    680.14585    1533959.3    283.18328 
  262000    323.45742   -61251.504   -49430.839   -36918.498    559.30519    1533959.3    275.18881 
  262100    325.63788   -61806.891   -49906.542   -40120.849    437.42323    1533959.3    251.51287 
  262200    326.10052   -62280.992   -50363.736   -42485.639    352.15316    1533959.3    272.57015 
  262300    318.29346    -62372.62   -50740.671   -42899.688    350.49415    1533959.3    284.98385 
  262400    325.01708   -63025.902    -51148.24   -45618.022    247.20231    1533959.3    290.70283 
  262500    326.44972   -63467.101   -51537.084   -48453.844    137.82171    1533959.3    298.38001 
  262600    324.10512   -63788.649   -51944.315   -49864.001    92.990607    1533959.3    261.35047 
  262700    322.87723   -64076.656   -52277.195   -51508.894     34.34327    1533959.3    295.69087 
  262800    327.74553   -64550.297   -52572.925   -53529.581   -42.762782    1533959.3    292.46534 
  262900     320.9758   -64638.762   -52908.788   -53894.705   -44.070755    1533959.3    273.14491 
  263000    321.74937   -64923.068   -53164.824   -55139.108   -88.251049    1533959.3    290.45783 
  263100    326.16108   -65336.082   -53416.613   -57477.312   -181.51437    1533959.3    224.62069 
  263200    325.36959   -65597.834    -53707.29   -59191.998   -245.16797    1533959.3    304.89283 
  263300    328.59961   -65944.046   -53935.462   -59963.245   -269.44361    1533959.3    306.72314 
  263400    324.85892   -66080.192    -54208.31   -61357.497   -319.57071    1533959.3    300.45007 
  263500    310.26305   -65718.842   -54380.362   -60037.951   -252.89583    1533959.3    287.99517 
  263600    299.40726   -64812.871   -53871.114   -56367.384   -111.58401    1533959.3    256.20266 
  263700    304.91998   -64379.497   -53236.278   -53399.011   -7.2741815    1533959.3    300.84789 
  263800    310.58287   -63913.694   -52563.527   -50617.146     87.00376    1533959.3     300.8179 
  263900    309.96558    -63152.11   -51824.501    -46108.06    255.52653    1533959.3    292.88912 
  264000    308.30105   -62296.954   -51030.174   -41852.822    410.23024    1533959.3    286.09127 
  264100    310.63466   -61554.133   -50202.073   -38732.826    512.67861    1533959.3    238.26534 
  264200    313.52784   -60818.706   -49360.915   -34649.176    657.61891    1533959.3     284.6481 
  264300     312.2162   -59859.332   -48449.475   -30287.555    811.84294    1533959.3    272.10067 
  264400    316.11983   -59220.387   -47667.873   -27260.876    912.19853    1533959.3    260.78612 
  264500    324.36475   -58959.353    -47105.53   -25223.058    978.15269    1533959.3    267.26173 
  264600    321.15109   -58214.836   -46478.456   -22432.522    1074.8601    1533959.3    291.73667 
  264700     329.1358   -58527.531   -46499.352    -23550.15    1025.8358    1533959.3    283.62678 
  264800    333.52729   -59391.985    -47203.32   -27512.175    880.19975    1533959.3    279.47941 
  264900    333.20029   -60228.361   -48051.646   -32769.995    683.09413    1533959.3    277.31412 
  265000    323.94084   -60510.277   -48671.946   -33941.682    658.44699    1533959.3    282.00623 
  265100    323.88898   -61053.561   -49217.126   -37413.336    527.63274    1533959.3    267.41048 
  265200    327.23441   -61668.964    -49710.27    -39246.94    467.71381    1533959.3    300.63614 
  265300    319.49149   -61725.586   -50049.856   -40275.478    436.91744    1533959.3    300.09666 
  265400    321.75028   -61827.697    -50069.42   -40901.259     409.8194    1533959.3    300.89041 
  265500    303.29335   -60170.378   -49086.604    -32363.64    747.52126    1533959.3     290.1215 
  265600    313.74266   -59853.138   -48387.497   -30918.569    780.86606    1533959.3    234.37653 
  265700    318.29403   -59286.747   -47654.778   -27163.305    915.97463    1533959.3    292.76911 
  265800     319.1692   -58597.601   -46933.648   -25044.131    978.46763    1533959.3    289.47756 
  265900    324.64031   -58462.157   -46598.264   -24075.803    1006.7604    1533959.3    281.21645 
  266000    337.40763   -59178.615   -46848.144   -26773.971     897.3212    1533959.3    284.95055 
  266100     333.0688   -59752.493   -47580.583   -29994.232    786.11483    1533959.3     244.8448 
  266200     330.5731    -60410.12   -48329.415   -33054.364    682.79911    1533959.3    299.65329 
  266300    326.03806   -60841.223    -48926.25   -34679.156    636.84911    1533959.3    299.51591 
  266400    329.20849    -61492.53   -49461.694   -39137.115    461.51161    1533959.3    297.62351 
  266500    335.78913   -62315.006   -50043.682   -42549.756    334.98063    1533959.3    296.91749 
  266600    323.31232   -62381.027   -50565.666   -43769.939    303.77088    1533959.3    199.83448 
  266700    327.26482   -62899.949   -50940.144   -45361.101    249.38483    1533959.3    293.90503 
  266800    328.50806   -63237.216   -51231.977   -47295.904     175.9436    1533959.3    292.25931 
  266900    328.37952   -63571.872    -51571.33   -49057.664    112.36158    1533959.3    295.05997 
  267000    325.79292   -63808.078   -51902.064   -50859.765    46.591053    1533959.3    291.15485 
  267100    325.41975   -64110.492   -52218.114   -52863.032   -28.827975    1533959.3    244.70395 
  267200     322.6948   -64277.934   -52485.139   -53598.775    -49.77983    1533959.3    300.97721 
  267300    324.18665   -64584.996   -52737.682   -54380.972   -73.455535    1533959.3    302.86604 
  267400     326.2409   -64842.322   -52919.936   -55471.367   -114.04971    1533959.3    303.93397 
  267500    329.11669   -65167.245   -53139.764   -57070.767   -175.71694    1533959.3    301.49623 
  267600    327.52183   -65401.532   -53432.335     -57506.1   -182.09848    1533959.3    253.14975 
  267700    329.64652   -65717.915   -53671.072   -59954.729   -280.88128    1533959.3    297.69449 
  267800    334.81848   -66188.398   -53952.547   -61594.041   -341.57697    1533959.3    300.85868 
  267900    329.46145   -66399.309   -54359.229   -62809.553   -377.73185    1533959.3    292.02368 
  268000     325.1001   -66580.037   -54699.341   -63647.418   -399.98154    1533959.3    285.69218 
  268100    327.33373   -66864.111   -54901.787   -65355.631   -467.28978    1533959.3    209.81297 
  268200    323.32037   -66957.216    -55141.56   -65567.207   -466.02934    1533959.3     286.5361 
  268300    325.80377   -67160.604   -55254.193   -66390.276   -497.78606    1533959.3    292.70843 
  268400     327.7761   -67385.125   -55406.635   -67851.983   -556.31056    1533959.3    302.50955 
  268500    323.86351   -67438.477   -55602.972   -67871.628   -548.41242    1533959.3    306.79942 
  268600    321.89674   -67606.502   -55842.872   -68983.574   -587.39308    1533959.3    250.26516 
  268700    325.58442   -67905.292   -56006.897   -69573.226   -606.41877    1533959.3    298.00668 
  268800    330.68862   -68251.178   -56166.251   -70755.941   -652.16325    1533959.3    299.39319 
  268900    321.74047   -68230.647   -56472.728   -71130.128    -655.1899    1533959.3      303.956 
  269000    324.95767   -68477.234   -56601.743   -72576.846   -714.09163    1533959.3    301.96617 
  269100    325.24872   -68680.827   -56794.699   -73682.977   -754.91081    1533959.3    257.01054 
  269200    328.57363   -68976.829   -56969.194   -74254.565   -772.66099    1533959.3    308.48773 
  269300    330.44232   -69220.726     -57144.8   -75611.708   -825.47603    1533959.3     304.2733 
  269400     324.7628   -69297.853   -57429.484   -76132.371   -836.02436    1533959.3    310.22178 
  269500    327.37488   -69522.917    -57559.09   -77482.462   -890.58034    1533959.3    300.82869 
  269600    321.67636   -69545.159   -57789.583   -77748.422   -892.16576    1533959.3    263.72702 
  269700    314.14249   -69385.749   -57905.496   -77149.862   -860.22858    1533959.3     307.8316 
  269800    303.94442    -68835.61   -57728.043   -74341.761   -742.63789    1533959.3    305.80202 
  269900    308.80593   -68586.311   -57301.081     -72906.6    -697.5711    1533959.3    296.94019 
  270000    306.00955   -68081.007    -56897.97   -71775.903   -665.04783    1533959.3     270.4509 
  270100    307.04275   -67620.806   -56400.011   -69086.619   -567.09497    1533959.3    259.25877 
  270200    312.77438   -67282.263   -55852.007    -66264.91   -465.45968    1533959.3    284.00204 
  270300    308.11132   -66594.562   -55334.717   -62972.394   -341.40632    1533959.3    297.48103 
  270400    312.98382   -66167.334   -54729.425   -61235.452   -290.82124    1533959.3    273.98244 
  270500     322.8394   -65987.017   -54188.937   -59124.715   -220.63063    1533959.3    264.52639 
  270600    319.78311    -65429.53   -53743.143    -56542.41   -125.12802    1533959.3    281.96414 
  270700    314.02784    -64662.73   -53186.667   -52374.634    36.298107    1533959.3     275.8066 
  270800    307.71988   -63736.353   -52490.813   -48304.317    187.13754    1533959.3    271.60115 
  270900    315.41728   -63309.803   -51782.964   -45752.736    269.55289    1533959.3    282.15894 
  271000    312.83076   -62443.727   -51011.411   -41441.487    427.77833    1533959.3     290.4697 
  271100    314.53597   -61756.063   -50261.431   -38291.367    535.06523    1533959.3    273.66442 
  271200    316.33186   -61129.394   -49569.131   -35159.583     644.1109    1533959.3    294.63424 
  271300    314.80107   -60318.297   -48813.976   -31468.604    775.34303    1533959.3    299.38315 
  271400    317.66514   -59711.645   -48102.658   -29216.956    844.19622    1533959.3    294.31606 
  271500    320.29864   -59162.982   -47457.754   -26426.366      940.109    1533959.3    291.79431 
  271600    331.59417   -59226.609   -47108.589   -25758.787     954.3422    1533959.3    170.21826 
  271700    323.63947   -58608.308    -46780.99   -23253.586    1051.6816    1533959.3    290.13937 
  271800    338.64247    -59520.53   -47144.932   -28178.715    847.79528    1533959.3    287.71109 
  271900     335.9495   -60220.765   -47943.581    -31480.64    735.89814    1533959.3    288.68438 
  272000    319.54411   -60188.567   -48510.913   -31227.334    772.58088    1533959.3    289.29906 
  272100    328.88061   -61191.842   -49172.988   -35635.437    605.13237    1533959.3    280.85246 
  272200    330.32269   -61836.901   -49765.347   -39087.179    477.31715    1533959.3    303.46053 
  272300    328.84591   -62324.229   -50306.643   -41678.693    385.67184    1533959.3    298.90183 
  272400    324.56184   -62647.156   -50786.131   -43612.891    320.64587    1533959.3    301.86598 
  272500    313.08544   -62486.463   -51044.839   -44125.736    309.28587    1533959.3    299.01604 
  272600    328.52567   -63111.267   -51105.384   -47123.841    177.97612    1533959.3    255.78066 
  272700    326.61628    -63332.46   -51396.356   -47872.721    157.50747    1533959.3    293.53336 
  272800    328.53234   -63853.235   -51847.109   -50079.537    79.010986    1533959.3    297.56587 
  272900    321.53495   -63944.084   -52193.676   -51372.818    36.692575    1533959.3    291.21995 
  273000    327.60838   -64434.189   -52461.829   -52234.101    10.179515    1533959.3    293.06512 
  273100    323.64227   -64564.645   -52737.225   -53365.552   -28.086388    1533959.3    242.12258 
  273200    326.98315    -64969.45   -53019.939    -55585.97   -114.70233    1533959.3    281.05044 
  273300    328.22487   -65300.234   -53305.344   -57447.775   -185.16783    1533959.3    289.13772 
  273400    326.48216   -65537.981   -53606.778   -58052.233   -198.71309    1533959.3    299.66142 
  273500     330.2531   -65987.539   -53918.528   -60219.899   -281.67304    1533959.3    289.59728 
  273600    329.65857   -66307.644    -54260.36   -61931.174   -342.88755    1533959.3    205.08991 
  273700    323.18133   -66434.569   -54623.994   -63266.627   -386.32813    1533959.3    285.71592 
  273800    319.82212   -66562.253    -54874.44   -64211.804   -417.38279    1533959.3    283.13377 
  273900     321.1984   -66839.381   -55101.272   -65606.142   -469.57066    1533959.3    290.19156 
  274000    325.18009   -67146.811   -55263.193   -66622.834    -507.7792    1533959.3    285.04234 
  274100     314.6626   -66990.378   -55491.118   -65972.203   -468.50747    1533959.3    286.77786 
  274200    302.86816   -66287.975    -55219.74   -62617.333   -330.67449    1533959.3    309.86243 
  274300    312.31654   -66081.427   -54667.903   -61816.891   -319.56178    1533959.3    298.29089 
  274400    313.59248   -65566.449   -54106.297   -58775.885   -208.73192    1533959.3    298.82325 
  274500    313.05713   -64946.378   -53505.789   -55142.381   -73.156129    1533959.3    290.63615 
  274600    306.84709   -64038.567   -52824.922   -51196.769    72.778887    1533959.3    229.02786 
  274700    309.99266   -63420.003   -52091.405   -47848.424    189.66243    1533959.3    296.84604 
  274800     309.1322   -62606.199   -51309.046   -43501.193    349.01323    1533959.3    292.57735 
  274900    317.65364   -62165.226   -50556.659   -41294.763    414.00937    1533959.3    298.02341 
  275000    315.41925   -61270.941   -49744.029   -36728.164    581.81287    1533959.3    293.52124 
  275100     316.0646   -60501.793   -48951.297   -32715.477    725.74573    1533959.3    213.18001 
  275200    317.37457   -59771.519   -48173.151   -29334.105    842.11067    1533959.3    294.58561 
  275300    322.75793   -59307.707   -47512.606   -27159.091    909.80785    1533959.3    298.73301 
  275400     320.3212   -58566.052       -46860   -23565.895    1041.2531    1533959.3    287.43643 
  275500    327.68432   -58607.396   -46632.261   -24134.907    1005.6381    1533959.3    291.73322 
  275600    334.79443   -59473.929   -47238.957   -28091.176    855.91121    1533959.3    205.60767 
  275700    334.78493   -60353.964   -48119.338   -32811.906    684.24655    1533959.3    279.15501 
  275800    324.11306   -60574.876   -48730.252   -34391.855    640.93039    1533959.3    282.75031 
  275900    323.88042   -61142.049   -49305.926   -37129.652    544.28288    1533959.3    278.72315 
  276000    324.42946   -61653.291   -49797.104   -39823.139    445.83903    1533959.3    273.82396 
  276100    324.66455   -62110.973   -50246.195   -42764.461    334.43562    1533959.3     277.7339 
  276200    317.43582   -62157.946    -50557.34    -42514.98    359.49576    1533959.3    279.11117 
  276300    324.99398   -62746.984   -50870.166   -45258.441    250.84569    1533959.3    290.94985 
  276400    307.78326   -62318.966    -51071.11   -43588.005     334.4969    1533959.3    300.43285 
  276500    301.87626   -61584.026   -50552.039   -40277.974    459.25363    1533959.3    297.56946 
  276600    308.42456   -61028.502   -49757.209   -37850.701     532.2243    1533959.3    291.69995 
  276700    312.86213   -60376.071   -48942.609   -34469.608    646.94723    1533959.3    292.81817 
  276800    313.61242   -59526.997   -48066.115   -30069.386    804.45887    1533959.3     293.0299 
  276900    317.40433    -58907.43   -47307.974   -26909.639    911.81134    1533959.3    292.17889 
  277000    321.76619   -58425.421   -46666.562   -24243.977    1002.2959    1533959.3    283.79835 
  277100    323.76948   -58318.759    -46486.69   -22777.058    1059.8272    1533959.3    261.59791 
  277200    336.92709   -59477.648   -47164.738   -29378.536     795.0483    1533959.3    301.52181 
  277300     330.9964   -59994.484    -47898.31   -31420.453    736.56486    1533959.3    302.31658 
  277400    326.78031   -60497.255   -48555.157   -34133.009    644.67409    1533959.3    298.80175 
  277500    323.77612   -60909.498   -49077.187   -36673.317    554.45648    1533959.3    295.23796 
  277600    325.74397   -61465.204   -49560.978   -38529.785    493.09746    1533959.3    187.27188 
  277700     323.2808   -61726.308   -49912.098   -40535.498    419.13668    1533959.3    292.26603 
  277800    326.83417   -62227.885   -50283.818   -42871.943     331.3129    1533959.3    274.78263 
  277900    322.32628   -62325.769   -50546.442   -43717.569    305.25258    1533959.3    269.82473 
  278000    333.88817   -63089.667   -50887.814   -46966.654    175.27692    1533959.3    289.25058 
  278100    326.02782   -63305.877   -51391.278   -48236.111    141.03683    1533959.3    293.86858 
  278200    328.23587   -63800.435   -51805.143   -50466.238     59.84943    1533959.3    298.57798 
  278300    325.46976   -63981.639   -52087.434    -52329.22    -10.80793    1533959.3    301.13776 
  278400    320.79312   -64007.783   -52284.484   -52070.862     9.548997    1533959.3    303.05227 
  278500     327.3355   -64323.151   -52360.763   -53214.056   -38.142427    1533959.3    298.19779 
  278600    319.63646   -64259.837   -52578.808   -53366.612   -35.215073    1533959.3    226.78043 
  278700    322.66992   -64667.806   -52875.921   -54634.087    -78.59055    1533959.3    298.51295 
  278800    320.28124   -64840.066   -53135.474   -55944.114   -125.54701    1533959.3    297.98424 
  278900    325.04476   -65174.652   -53295.979   -57550.639   -190.18451    1533959.3    294.24668 
  279000    329.45334   -65600.828   -53561.044   -58993.755   -242.84373    1533959.3    292.35832 
  279100    327.70588   -65692.596   -53716.673   -59972.811   -279.65117    1533959.3    184.67087 
  279200    332.38952   -66091.878   -53944.792   -61472.482   -336.48988    1533959.3    294.64459 
  279300    325.99268   -66165.915     -54252.6   -62066.573    -349.2868    1533959.3    299.95609 
  279400    328.58043   -66456.492   -54448.609   -63641.447   -410.92247    1533959.3    287.32577 
  279500     326.3256    -66601.01   -54675.529   -63652.739   -401.28383    1533959.3    304.60034 
  279600    328.82389    -66892.63   -54875.849   -65710.396   -484.30731    1533959.3    261.70074 
  279700    336.29593   -67368.108   -55078.264   -67519.433   -556.12379    1533959.3    305.14304 
  279800    329.24548   -67498.725   -55466.538   -68846.525   -598.08923    1533959.3    303.00367 
  279900    325.42811   -67685.351   -55792.668   -69219.567   -600.18617    1533959.3    287.27224 
  280000    326.37726    -67960.38   -56033.011   -70674.143   -654.46276    1533959.3    255.07073 
  280100    320.49984   -68023.021    -56310.44   -70986.485   -656.02334    1533959.3        282.7 
  280200    328.23038   -68395.654   -56400.564   -72349.969   -712.94296    1533959.3    247.65582 
  280300    323.28666   -68483.152   -56668.727   -72536.984   -709.31555    1533959.3    250.89572 
  280400    318.37633   -68525.532   -56890.555   -73034.308   -721.63032    1533959.3    295.61668 
  280500    323.36941   -68453.415   -56635.967   -72893.807   -726.73004    1533959.3    300.57387 
  280600    307.66923   -67629.657   -56385.968   -69081.127    -567.4772    1533959.3    297.80948 
  280700    310.10649   -67248.169    -55915.41   -67430.975   -514.74899    1533959.3    303.11118 
  280800    317.83452   -67029.259   -55414.082   -65477.629   -449.84342    1533959.3    306.12967 
  280900    311.15858   -66383.523   -55012.317   -62420.299    -331.1389    1533959.3    306.00973 
  281000    309.54387   -65787.408    -54475.21    -60210.93   -256.38832    1533959.3    297.07711 
  281100    311.80795    -65262.65   -53867.712   -57288.877   -152.92704    1533959.3    239.90414 
  281200    306.36418   -64386.008   -53190.012   -52954.528    10.526224    1533959.3    284.01992 
  281300    305.04782   -63580.363   -52432.472   -49269.129    141.40234    1533959.3     284.2929 
  281400    311.13552   -63028.012   -51657.648   -45098.066    293.21516    1533959.3    295.03921 
  281500    317.71754   -62582.445   -50971.542   -43117.963    351.05723    1533959.3    300.01831 
  281600    312.13745   -61657.978   -50250.999   -38979.826    503.82461    1533959.3    273.11948 
  281700    312.50571   -60811.732   -49391.295   -34306.857    674.27866    1533959.3    288.57276 
  281800     312.6015   -59923.734   -48499.796   -29492.897    849.61377    1533959.3     273.8894 
  281900    318.93696   -59439.881   -47784.415   -28350.895    868.68388    1533959.3     275.0017 
  282000    318.62752   -58715.882   -47071.725   -24483.163    1009.7151    1533959.3    271.56053 
  282100    335.02581   -59079.994   -46836.566   -25885.245    936.52998    1533959.3     272.1978 
  282200    336.34122   -59401.061   -47109.562   -27123.557    893.38007    1533959.3    276.41878 
  282300    329.59124   -59909.701   -47864.877   -29811.723     806.9811    1533959.3    268.60926 
  282400     324.4638   -60427.183   -48569.741   -32737.109    707.72311    1533959.3    261.53968 
  282500     326.7103   -61150.279   -49210.739   -36863.573    551.92182    1533959.3    274.19576 
  282600    322.09486   -61448.725   -49677.855   -38354.429    506.16033    1533959.3    245.29772 
  282700    312.41203   -61330.408   -49913.394   -38286.893    519.70788    1533959.3    256.54569 
  282800    326.38882   -62029.301    -50101.51   -40731.341     418.8492    1533959.3    289.09666 
  282900    309.48004   -61267.819   -49957.954   -38383.055    517.40126    1533959.3    292.50043 
  283000    306.80507   -60304.383   -49092.274   -33550.687    694.71333    1533959.3    287.76399 
  283100    314.01252   -59801.281   -48325.777   -30858.886    780.77497    1533959.3    284.57587 
  283200    317.14459   -59121.245   -47531.281   -27592.583    891.26542    1533959.3    285.23832 
  283300    324.27321   -58752.489   -46902.011   -25338.936    963.87555    1533959.3     290.2269 
  283400    333.85253   -58809.329   -46608.778   -25431.797    946.61704    1533959.3    293.15545 
  283500    319.05465    -58446.14   -46786.374   -23719.304    1031.1045    1533959.3    294.07875 
  283600    329.30203   -59762.095   -47727.841   -30141.162    786.12955    1533959.3    291.55882 
  283700    325.08828   -60288.058   -48407.794   -33286.143    675.94207    1533959.3    288.45785 
  283800    327.43971   -60972.334   -49006.138   -36721.153    549.14229    1533959.3    288.93296 
  283900    315.98554     -60801.4   -49253.793   -37011.934    547.21458    1533959.3    287.98449 
  284000    313.99858   -60726.411   -49251.417   -35642.454    608.32451    1533959.3    281.98727 
  284100    308.82452    -59904.16   -48618.251   -31844.533    749.78993    1533959.3    263.24651 
  284200    313.10581   -59269.638   -47827.271   -29006.819    841.27952    1533959.3     297.8541 
  284300    322.49308   -59031.903    -47246.48   -26518.598    926.54217    1533959.3    294.34704 
  284400    321.36382    -58470.16   -46726.006   -24368.574    999.38355    1533959.3    294.10452 
  284500    332.17358   -58841.391   -46702.197   -25341.424    954.83259    1533959.3    268.19875 
  284600    336.56818   -59526.165   -47226.371   -29157.763    807.67188    1533959.3    218.81072 
  284700    329.38235   -59980.825   -47943.636   -31241.333    746.59764    1533959.3    252.96852 
  284800    325.35633   -60449.431   -48559.372   -34629.153    622.68472    1533959.3    265.42381 
  284900    327.67957   -61102.913   -49127.951   -37058.345    539.51481    1533959.3      280.094 
  285000    332.08389   -61942.807   -49806.891   -41356.106    377.75249    1533959.3    287.56531 
  285100    332.51502   -62598.756   -50447.084   -44416.516    269.56813    1533959.3    206.60823 
  285200    328.45602   -63005.565   -51002.228   -46537.791    199.56159    1533959.3    304.06683 
  285300     323.0455   -63268.631    -51463.02   -48466.289    133.95473    1533959.3    287.07012 
  285400    321.07145   -63518.532   -51785.063   -49322.368    110.08316    1533959.3    296.64261 
  285500    324.09268   -63795.434   -51951.554   -50806.151    51.199826    1533959.3    292.89096 
  285600    321.45202   -63899.044   -52151.667    -51618.23     23.84476    1533959.3    232.70042 
  285700    320.27636   -64118.574    -52414.16    -52547.98   -5.9818005    1533959.3    278.57098 
  285800     299.8768   -63013.805   -52054.888   -47664.615    196.24644    1533959.3    281.52034 
  285900    308.74372   -62637.722   -51354.765   -45612.952    256.66067    1533959.3    281.98575 
  286000    316.27918    -62239.87   -50681.533   -43515.651    320.31695    1533959.3    283.14485 
  286100    315.93552   -61581.527   -50035.748   -39784.563    458.23087    1533959.3    250.37751 
  286200    317.32086   -61014.558   -49418.153   -37157.069    548.07391    1533959.3    300.28487 
  286300    310.11818   -59887.828   -48554.643   -32060.407      737.297    1533959.3    295.75571 
  286400    316.11692   -59376.677   -47824.269   -29284.181    828.74719    1533959.3    297.62077 
  286500    317.29485   -58704.418   -47108.963   -26018.351    942.75629    1533959.3     290.8633 
  286600    331.03579   -58907.679   -46810.065   -26820.407    893.54338    1533959.3    291.59875 
  286700    335.74189   -59121.524   -46851.927   -26634.508    903.72433    1533959.3    288.67941 
  286800    331.86859   -59514.353   -47386.305   -29990.757     777.5859    1533959.3     284.9101 
  286900    330.80552   -60197.029    -48107.83   -33389.871    657.89694    1533959.3    288.18196 
  287000    329.33417   -60753.875   -48718.446   -36073.538    565.23098    1533959.3    281.14614 
  287100    324.81618   -60945.172   -49074.852   -36817.502    547.90699    1533959.3    259.27079 
  287200    310.58318   -60527.989    -49177.81   -36093.273    584.88252    1533959.3    300.06789 
  287300    307.56732   -59705.856   -48465.891    -32152.81    729.19935    1533959.3    298.14437 
  287400    314.35546   -59207.146   -47719.111   -29654.603     807.4886    1533959.3    296.76497 
  287500    317.79624   -58602.589   -46988.811   -25433.124    963.54532    1533959.3    296.79668 
  287600    326.14482   -58435.615    -46516.74   -24212.124    997.02266    1533959.3    252.65796 
  287700    335.95766   -58818.137   -46540.655   -26036.171    916.55625    1533959.3    295.31612 
  287800    333.10193   -59479.566   -47306.446   -30081.659    769.95284    1533959.3    289.97448 
  287900     325.0873   -59787.862   -47907.634   -32928.324     669.5794    1533959.3    292.37625 
  288000    325.06805   -60311.212   -48431.688   -34594.094    618.54434    1533959.3    287.60436 
  288100    332.91212   -61148.691   -48982.507   -37847.228    497.75015    1533959.3    292.99306 
  288200    330.29292   -61659.605    -49589.14   -40366.497    412.25473    1533959.3    298.80175 
  288300    314.40659   -61462.205   -49972.301   -40032.449    444.31419    1533959.3    299.13611 
  288400    328.89703     -61979.2   -49959.747   -42794.568    320.28549    1533959.3    296.32887 
  288500    308.84645   -61073.443   -49786.732   -38844.538    489.11918    1533959.3    297.54729 
  288600    307.55757   -60451.771   -49212.162   -35953.933     592.6466    1533959.3    249.42504 
  288700    310.18519    -59811.89   -48476.256   -33176.176    683.91788    1533959.3    293.14602 
  288800    313.38595   -59170.844   -47718.238   -28667.591    851.56931    1533959.3    285.86197 
  288900      319.072   -58692.979   -47032.579   -26523.014    916.78334    1533959.3    282.79435 
  289000    333.83397   -58862.147   -46662.275   -26364.498    907.31634    1533959.3    284.47724 
  289100    330.71111   -58566.715   -46480.966    -26435.79    896.02506    1533959.3    247.27315 
  289200    334.64051   -59151.033   -46921.686   -27955.848    847.77831    1533959.3    278.23761 
  289300    328.38754     -59577.8   -47576.965   -30749.268    752.20282    1533959.3    289.85084 
  289400    325.58085   -60095.267   -48197.002   -33329.871    664.56495    1533959.3    292.06049 
  289500    326.98585   -60654.452   -48704.842    -36253.91    556.56018    1533959.3    286.49676 
  289600    326.74919   -61132.447   -49191.486   -39263.285    443.79341    1533959.3    264.27122 
  289700    329.35933   -61689.912   -49653.564   -41240.912     376.0479    1533959.3    291.87879 
  289800    335.93618   -62548.258    -50271.56    -45258.52    224.08432    1533959.3    290.76873 
  289900    327.14815    -62788.52   -50832.979   -47048.272    169.17749    1533959.3    285.71105 
  290000    321.24949    -63040.28   -51300.304    -48411.35    129.13706    1533959.3    282.17584 
  290100    324.31965   -63565.629   -51713.454   -50725.509    44.161448    1533959.3    227.08948 
  290200    324.14103   -63872.959   -52027.312   -51762.931    11.817887    1533959.3    292.08347 
  290300    326.57492   -64277.127   -52342.534   -54048.471   -76.255848    1533959.3    297.02052 
  290400    328.41864   -64697.851    -52695.88   -55809.928   -139.19882    1533959.3    292.13534 
  290500    324.46089    -64916.65   -53059.314   -56768.907   -165.81987    1533959.3    288.87804 
  290600    327.77617   -65353.017   -53374.525   -58960.292   -249.68536    1533959.3    224.98505 
  290700    327.88038   -65629.229   -53646.928   -60157.249   -291.01321    1533959.3    288.28397 
  290800    325.81145   -65820.765   -53914.073   -61295.873   -329.96855    1533959.3    284.82729 
  290900    325.65043   -66065.584   -54164.777   -62334.588   -365.19285    1533959.3    284.31545 
  291000    327.28113   -66337.381    -54376.98   -63602.946   -412.40329    1533959.3    285.27091 
  291100     320.8348   -66378.354   -54653.532   -64054.881   -420.24296    1533959.3    281.44289 
  291200    325.15523   -66632.331   -54749.621   -64664.419   -443.19428    1533959.3    299.31328 
  291300    322.40159   -66686.969    -54904.89   -64804.596   -442.51967    1533959.3    306.20096 
  291400    324.87471   -66933.031   -55060.572   -66408.805   -507.26922    1533959.3    307.70084 
  291500    325.94785   -67143.204   -55231.527   -66781.639   -516.29327    1533959.3    301.67535 
  291600    322.16512   -67096.839   -55323.401   -66889.669   -517.01545    1533959.3    169.86297 
  291700    327.82892    -67335.18    -55354.76   -67739.293   -553.59214    1533959.3    301.78475 
  291800    328.06823   -67551.063   -55561.898    -68693.92   -587.00511    1533959.3    301.21281 
  291900    329.24083   -67771.394   -55739.376   -69268.261   -604.74499    1533959.3    299.56896 
  292000    317.28899   -67616.298   -56021.057   -69041.224   -582.00515    1533959.3    289.41643 
  292100    327.03147   -68034.374   -56083.097   -70908.649   -662.70638    1533959.3    231.52382 
  292200    323.15811   -68094.462   -56284.735    -71667.26   -687.60322    1533959.3      293.293 
  292300    327.10471   -68360.268   -56406.315   -72812.792   -733.37418    1533959.3    296.96837 
  292400      325.873   -68495.606   -56586.665   -72795.096   -724.52146    1533959.3    302.33598 
  292500    325.88731   -68641.673   -56732.209     -73940.3   -769.20654    1533959.3    297.02136 
  292600    329.78946   -68914.924   -56862.857   -74799.528   -801.77428    1533959.3    194.35899 
  292700    328.46627    -69097.14   -57093.429   -75152.393   -807.24079    1533959.3    304.12504 
  292800    327.58822   -69301.121   -57329.498    -76558.98   -859.56331    1533959.3    302.64707 
  292900    325.82753   -69402.606   -57495.327   -77651.844   -901.00204    1533959.3    304.01879 
  293000    323.92397   -69416.026   -57578.311   -77669.559   -898.08447    1533959.3    302.23446 
  293100    322.99165   -69469.751   -57666.108   -78014.999   -909.60119    1533959.3    177.45473 
  293200    321.72446   -69522.145   -57764.811   -78240.141   -915.25304    1533959.3    296.80802 
  293300    304.06609   -69044.756   -57932.743   -76379.783    -824.5879    1533959.3     308.4934 
  293400    311.86326   -68951.794   -57554.835   -75677.317   -810.08004    1533959.3    308.45256 
  293500     305.0108   -68395.298    -57248.76   -73040.413   -705.89135    1533959.3    306.01442 
  293600    303.06206   -67880.717   -56805.396   -70854.888   -628.01628    1533959.3     242.8257 
  293700    304.82433   -67416.046   -56276.323   -68214.201   -533.62653    1533959.3    252.96409 
  293800    304.81199    -66825.23   -55685.958   -64542.325   -395.88209    1533959.3     276.9715 
  293900    299.80416   -65994.777   -55038.514   -61177.234    -274.4025    1533959.3    279.20016 
  294000    307.81502   -65590.127    -54341.11   -59014.582   -208.90552    1533959.3    254.62925 
  294100    314.89304   -65185.758   -53678.076    -56345.27   -119.22432    1533959.3    262.57742 
  294200    314.53683   -64514.454    -53019.79   -53206.077   -8.3270774    1533959.3    291.40832 
  294300    317.59254    -64017.21   -52410.876   -50897.333    67.655787    1533959.3    295.64106 
  294400    312.21884   -63183.072   -51773.118   -46558.305    233.10361    1533959.3    297.30411 
  294500    317.16673   -62706.236   -51115.463   -44037.623    316.38146    1533959.3    299.93378 
  294600    320.56835   -62279.738   -50564.654    -42030.46    381.48086    1533959.3     274.0356 
  294700    321.88386   -61874.221   -50111.062   -39069.347    493.56778    1533959.3    290.60313 
  294800    328.78946   -61808.545   -49793.022   -38613.772    499.71565    1533959.3    290.14438 
  294900    333.41814   -61989.942   -49805.265   -39616.993    455.41864    1533959.3    291.04959 
  295000    336.41935    -62777.95   -50483.595   -43832.398    297.31036    1533959.3    288.05154 
  295100    330.60842   -63284.489   -51202.494   -45561.202    252.16735    1533959.3    239.21386 
  295200    325.83535   -63703.915   -51796.349    -48832.71    132.47552    1533959.3     283.1418 
  295300    327.73024   -64210.732   -52233.919   -51302.453    41.636763    1533959.3    278.68815 
  295400    321.98228   -64454.162   -52687.406   -53003.276   -14.119474    1533959.3    281.36831 
  295500    327.85828   -65095.491   -53113.998   -55767.367   -118.60636    1533959.3    272.03044 
  295600    327.34395    -65366.85   -53404.153   -57546.854   -185.17992    1533959.3    293.02233 
  295700    328.41939   -65713.477   -53711.479   -58891.254    -231.5374    1533959.3    294.51176 
  295800    324.94317   -65913.502   -54038.541   -60201.925   -275.50504    1533959.3    293.26285 
  295900    320.73567    -66036.29   -54315.091   -61462.664   -319.49854    1533959.3    291.40244 
  296000    321.04389   -66250.199   -54517.736   -61856.409   -328.04074    1533959.3    288.57613 
  296100    324.60793   -66579.789    -54717.08   -63636.195   -398.68697    1533959.3    275.46913 
  296200      325.489   -66786.072   -54891.164   -64604.262   -434.17821    1533959.3    302.07838 
  296300    301.88406    -65866.45   -54834.178   -60807.335   -267.00181    1533959.3    294.85565 
  296400    308.16896   -65455.693   -54193.741   -58441.979   -189.89742    1533959.3    289.16602 
  296500    306.81403   -64754.847   -53542.411   -54454.078   -40.751771    1533959.3    287.73832 
  296600    309.18779   -64160.891   -52861.706    -51799.58    47.477351    1533959.3    234.22052 
  296700    310.11567   -63525.319   -52192.225   -48738.774    154.37027    1533959.3    288.98572 
  296800    313.63717   -63001.636    -51539.85   -45749.434    258.83325    1533959.3    292.62001 
  296900    321.95933   -62704.204   -50938.287   -43902.026    314.52287    1533959.3    285.35243 
  297000    318.07194   -61985.304    -50361.45   -39979.052    464.09616    1533959.3    285.97248 
  297100    314.63917   -61195.917   -49697.514   -36795.269    576.73396    1533959.3     237.1106 
  297200    312.83408   -60351.144   -48918.706   -32745.473    722.94812    1533959.3    289.75092 
  297300    319.25267   -59945.766   -48278.763    -29700.48    830.45448    1533959.3    289.23901 
  297400    317.44604   -59147.833   -47546.852   -26198.633    954.27145    1533959.3    286.11645 
  297500    323.06768   -58797.619   -46991.198   -25238.123     972.3686    1533959.3    285.22125 
  297600    334.54533   -58948.209    -46722.34   -25690.875    940.11243    1533959.3    253.20232 
  297700    337.73388   -59437.165   -47094.771   -27393.503    880.65229    1533959.3    284.48785 
  297800    331.87146   -59969.128   -47840.974   -30410.334    779.15455    1533959.3     273.3637 
  297900    330.54004   -60619.693   -48540.196   -34592.671    623.45836    1533959.3    282.91739 
  298000    324.93293   -60983.403   -49108.816   -36043.221    584.03582    1533959.3    280.57816 
  298100    324.83235   -61496.146   -49625.235   -39177.041    467.03723    1533959.3    277.67046 
  298200    326.51736   -62055.841   -50123.352   -41540.074    383.67495    1533959.3    296.35253 
  298300    332.35304   -62824.119   -50678.366   -45071.886    250.61125    1533959.3    290.99043 
  298400    329.36412   -63259.177   -51222.653   -47460.949    168.14925    1533959.3    284.79151 
  298500    324.57674   -63565.091   -51703.522   -49930.614     79.24948    1533959.3    290.24377 
  298600    326.62821   -64023.043   -52086.503   -52177.482   -4.0668173    1533959.3    291.08272 
  298700    327.57647   -64410.441   -52439.247   -53055.805   -27.560336    1533959.3    290.74333 
  298800    324.70361   -64624.158   -52757.952   -53936.745   -52.692362    1533959.3    289.05243 
  298900    320.87007   -64794.633   -53068.523   -55739.644   -119.39984    1533959.3     292.2019 
  299000    325.28986   -65180.561    -53292.93   -57462.093   -186.36277    1533959.3    284.53398 
  299100    320.29906   -65246.338   -53541.095   -57602.059   -181.52625    1533959.3    228.85491 
  299200    327.47576   -65692.017   -53724.504   -59602.881   -262.76515    1533959.3    289.87428 
  299300    325.97077   -65893.112   -53980.598   -60634.987   -297.45308    1533959.3    297.29084 
  299400    327.78001   -66145.926   -54167.294   -61650.261   -334.49075    1533959.3    293.51076 
  299500     331.3533   -66462.477    -54353.26   -62330.582   -356.58855    1533959.3      294.257 
  299600    334.79823   -66869.651   -54634.539   -64463.675   -439.36515    1533959.3    251.74595 
  299700    327.26653   -66991.945   -55032.078   -65916.626   -486.54235    1533959.3    299.27655 
  299800    324.86308   -67175.948   -55303.914   -66463.991    -498.8586    1533959.3    298.85178 
  299900    324.90977   -67392.462   -55518.722   -67171.326   -520.87471    1533959.3     297.2881 
  300000    322.76801   -67542.677   -55747.207    -68189.38   -556.16865    1533959.3    253.86191 
Loop time of 1076.05 on 8 procs for 300000 steps with 12261 atoms

Pair  time (%) = 736.227 (68.4194)
Bond  time (%) = 15.6006 (1.44981)
Neigh time (%) = 122.854 (11.4172)
Comm  time (%) = 166.556 (15.4785)
Outpt time (%) = 1.41918 (0.131888)
Other time (%) = 33.392 (3.10321)

Nlocal:    1532.62 ave 1642 max 1435 min
Histogram: 2 2 0 0 0 0 0 1 2 1
Nghost:    3483.5 ave 3572 max 3383 min
Histogram: 1 1 2 0 0 0 0 1 1 2
Neighs:    69441.1 ave 76947 max 62440 min
Histogram: 1 1 2 0 0 0 1 1 1 1

Total # of neighbors = 555529
Ave neighs/atom = 45.3086
Ave special neighs/atom = 0.69978
Neighbor list builds = 30000
Dangerous builds = 29997
#       steps nevery T0 fixname seed1 seed2 EX_flag $w_list-of-walkers

