LAMMPS (10 Jun 2014)
Processor partition = 1
# ------------------------------- Initialization Section --------------------
units           real
atom_style      full
include         "system.in.init"
    bond_style      hybrid harmonic
    angle_style     hybrid cosine/squared
    #pair_style      hybrid lj/gromacs/coul/gromacs 9 12 0.000001 12
    pair_style      hybrid lj/gromacs/coul/gromacs 9 12 0.000001 12
    special_bonds   lj/coul 0 1 1
    neigh_modify    every 10
     dielectric      15
     pair_style      hybrid lj/gromacs/coul/gromacs 9 12 0.000001 12
     dielectric      15
     pair_style      hybrid lj/gromacs/coul/gromacs 9 12 0.000001 12

# ------------------------------- Atom Definition Section -------------------

# Read the coordinates generated by an earlier simulation

#read_data       "system.data"
#read_data       "system_after_min.data"
read_data       "system_after_npt.data"
  orthogonal box = (-7.02847 -7.02327 13.3246) to (104.528 104.451 136.675)
  2 by 2 by 2 MPI processor grid
  reading atoms ...
  12261 atoms
  reading velocities ...
  12261 velocities
  scanning bonds ...
  2 = max bonds/atom
  scanning angles ...
  2 = max angles/atom
  reading bonds ...
  4290 bonds
  reading angles ...
  3120 angles
  3 = max # of 1-2 neighbors
  3 = max # of special neighbors

# ------------------------------- Settings Section --------------------------

include         system.in.settings
    pair_coeff 2 2 lj/gromacs/coul/gromacs  0.8365200764818 4.7
    pair_coeff 2 3 lj/gromacs/coul/gromacs  1.0755258126195 4.7
    pair_coeff 2 4 lj/gromacs/coul/gromacs  0.9560229445507 4.7
    pair_coeff 2 5 lj/gromacs/coul/gromacs  0.4780114722753 6.2
    pair_coeff 3 3 lj/gromacs/coul/gromacs  1.1950286806883 4.7
    pair_coeff 3 4 lj/gromacs/coul/gromacs  0.9560229445507 4.7
    pair_coeff 3 5 lj/gromacs/coul/gromacs  0.4780114722753 6.2
    pair_coeff 4 4 lj/gromacs/coul/gromacs  0.9560229445507 4.7
    pair_coeff 4 5 lj/gromacs/coul/gromacs  0.6453154875717 4.7
    pair_coeff 5 5 lj/gromacs/coul/gromacs  0.8365200764818 4.7
    bond_coeff 1           harmonic              1.4937858508604 4.7
    bond_coeff 2        harmonic              1.4937858508604 3.7
    angle_coeff  1       cosine/squared        2.9875717017208 180
    angle_coeff  2       cosine/squared        2.9875717017208 120
    pair_coeff 1 1  lj/gromacs/coul/gromacs  1.1950286806883 4.7
    pair_coeff 6 6  lj/gromacs/coul/gromacs  1.1950286806883 4.7
pair_coeff 1 2 lj/gromacs/coul/gromacs 1.3384321223709 4.7
pair_coeff 1 3 lj/gromacs/coul/gromacs 1.3384321223709 4.7
pair_coeff 1 4 lj/gromacs/coul/gromacs 0.9560229445507 4.7
pair_coeff 1 5 lj/gromacs/coul/gromacs 0.4780114722753 4.7
pair_coeff 1 6 lj/gromacs/coul/gromacs 1.3384321223709 5.7
pair_coeff 2 6 lj/gromacs/coul/gromacs 1.3384321223709 4.7
pair_coeff 3 6 lj/gromacs/coul/gromacs 1.3384321223709 4.7
pair_coeff 4 6 lj/gromacs/coul/gromacs 0.9560229445507 4.7
pair_coeff 5 6 lj/gromacs/coul/gromacs 0.4780114722753 4.7

# ------------------------------- Run Section -------------------------------
# -- simulation protocol --
# Define variables
variable tlo world 200 210
variable thi world 500 510
#variable w world ZZZ # order of walkers from last output, replace in submission script with latest order from output

timestep        30.0    # (40.0 should be possible for lipid systems)
thermo          100
thermo_style    custom step temp pe etotal enthalpy press vol spcpu

# Continue the simulation at constant volume (NVT) at 323K.
dump     id2 all dcd 1000 dcd/restmd-${tlo}-${thi}.dcd
dump     id2 all dcd 1000 dcd/restmd-210-${thi}.dcd
dump     id2 all dcd 1000 dcd/restmd-210-510.dcd
dump_modify id2 unwrap yes
fix      fxnvt all nvt temp 323 323 3000.0



# STMD
fix     fxstmd all stmd 50000 1.5 ${tlo} ${thi} -80000 -20000 256 10000 500000 323 10000 1 1
fix     fxstmd all stmd 50000 1.5 210 ${thi} -80000 -20000 256 10000 500000 323 10000 1 1
fix     fxstmd all stmd 50000 1.5 210 510 -80000 -20000 256 10000 500000 323 10000 1 1
#       fixname all stmd RSTFRQ finit Tlo Thi Ulo Uhi binsize TSC1 TSC2 T0 PRTFRQ RE_flag OREST_flag

restart     100000 restart/${tlo}-${thi}.*.restart
restart     100000 restart/210-${thi}.*.restart
restart     100000 restart/210-510.*.restart

# Replica Exchange run
restmd  300000 500 323 fxstmd 0 12345 1
RESTMD: nReplica= 2  walker= 1
STMD Check initial values...
STMD STG= 2 N= 236  bin= 256
STMD Ynew(Y2)=  0.650155 0.650155 0.650155 0.650155 0.650155 0.650155 0.650155 0.650155 0.650155 0.650155 0.650155 0.650155 0.650155 0.650155 0.650155 0.650155 0.650155 0.650155 0.650155 0.650155 0.650155 0.650155 0.650155 0.650155 0.650155 0.650155 0.650155 0.650155 0.650155 0.650155 0.650155 0.650155 0.650155 0.650155 0.650155 0.650155 0.650155 0.650155 0.650155 0.650155 0.650155 0.650155 0.650155 0.650155 0.650155 0.658633 0.686565 0.736407 0.722503 0.755349 0.730444 0.749966 0.795812 0.819040 0.843102 0.881967 0.891935 0.905364 0.920544 0.951050 0.981354 1.006382 1.017737 1.051641 1.081360 1.077669 1.092588 1.152415 1.128723 1.164101 1.189319 1.205211 1.235879 1.250567 1.278421 1.304842 1.321225 1.345151 1.368476 1.398794 1.409725 1.428868 1.428868 1.480812 1.416049 1.498383 1.503736 1.569137 1.578947 1.578947 1.578947 1.578947 1.578947 1.578947 1.578947 1.578947 1.578947 1.578947 1.578947 1.578947 1.578947 1.578947 1.578947 1.578947 1.578947 1.578947 1.578947 1.578947 1.578947 1.578947 1.578947 1.578947 1.578947 1.578947 1.578947 1.578947 1.578947 1.578947 1.578947 1.578947 1.578947 1.578947 1.578947 1.578947 1.578947 1.578947 1.578947 1.578947 1.578947 1.578947 1.578947 1.578947 1.578947 1.578947 1.578947 1.578947 1.578947 1.578947 1.578947 1.578947 1.578947 1.578947 1.578947 1.578947 1.578947 1.578947 1.578947 1.578947 1.578947 1.578947 1.578947 1.578947 1.578947 1.578947 1.578947 1.578947 1.578947 1.578947 1.578947 1.578947 1.578947 1.578947 1.578947 1.578947 1.578947 1.578947 1.578947 1.578947 1.578947 1.578947 1.578947 1.578947 1.578947 1.578947 1.578947 1.578947 1.578947 1.578947 1.578947 1.578947 1.578947 1.578947 1.578947 1.578947 1.578947 1.578947 1.578947 1.578947 1.578947 1.578947 1.578947 1.578947 1.578947 1.578947 1.578947 1.578947 1.578947 1.578947 1.578947 1.578947 1.578947 1.578947 1.578947 1.578947 1.578947 1.578947 1.578947 1.578947 1.578947 1.578947 1.578947 1.578947 1.578947 1.578947 1.578947 1.578947 1.578947 1.578947 1.578947 1.578947 1.578947 1.578947 1.578947 1.578947 1.578947 1.578947 1.578947 1.578947 1.578947 1.578947 1.578947 1.578947 1.578947 1.578947 1.578947 1.578947
RESTMD STAGE 2
RESTMD STG2: istep= 0  TSC2= 500000
RESTMD STG2: f= 1.500000  df= 0.000792
RESTMD STG2: STG= 2
Memory usage per processor = 6.6755 Mbytes
Step Temp PotEng TotEng Enthalpy Press Volume S/CPU 
       0    322.41283   -64538.051   -52755.561   -52599.468     6.977405    1533959.3            0 
     100     314.3268   -64108.345   -52621.357   -50819.671    80.535862    1533959.3     267.5973 
     200    310.36531   -63573.957    -52231.74   -48413.632     170.6705    1533959.3    291.95376 
     300    311.05073    -63090.38   -51723.115   -45900.034    260.29337    1533959.3    292.60204 
     400     310.8161   -62514.236   -51155.546   -43272.023     352.3957    1533959.3    279.27973 
     500    315.95721   -62129.145   -50582.574   -41281.254    415.77162    1533959.3    271.28653 
     600    317.95739   -61612.036   -49992.369   -38209.344    526.70453    1533959.3    208.78652 
     700    315.01525   -60826.689   -49314.541   -34787.017    649.38445    1533959.3    277.04211 
     800    313.80434   -60072.635    -48604.74   -31192.974    778.31085    1533959.3    292.19945 
     900     312.9368   -59307.703   -47871.511   -27450.524    912.82391    1533959.3    291.72896 
    1000    319.51821   -58982.019   -47305.312   -26538.999    928.26003    1533959.3      286.967 
    1100    324.00697   -58686.403   -46845.655   -24473.772    1000.0295    1533959.3    224.31184 
    1200    329.37729   -58619.603   -46582.598   -24004.029    1009.2684    1533959.3    284.41725 
    1300    339.24962   -59521.538   -47123.752   -28390.848    837.36612    1533959.3    282.52272 
    1400    333.96994     -60025.2   -47820.359   -31343.096    736.53832    1533959.3    283.91015 
    1500    331.53623    -60608.58   -48492.678   -33929.696     650.9694    1533959.3    291.42978 
    1600    332.32149   -61278.584   -49133.984   -37592.198    515.92114    1533959.3    190.46638 
    1700    330.20654   -61609.996   -49542.687   -39253.841    459.91432    1533959.3    291.67013 
    1800    324.40772   -61792.514   -49937.121   -39866.338    450.16685    1533959.3    292.67922 
    1900    322.94704   -62241.629   -50439.616   -42277.106    364.86653    1533959.3      293.317 
    2000    322.62722   -62692.252   -50901.927   -45051.326    261.52355    1533959.3     287.4977 
    2100    325.94179   -63219.648   -51308.193    -47487.01    170.80795    1533959.3    203.68342 
    2200    326.18348   -63611.031   -51690.743   -49431.529    100.98752    1533959.3    304.62157 
    2300    326.72578   -64003.522   -52063.417   -51553.688    22.785016    1533959.3    298.92249 
    2400    323.59998   -64150.602   -52324.727   -51973.282    15.709728    1533959.3    298.31232 
    2500     329.7506   -64773.429   -52722.782   -54415.918   -75.683652    1533959.3    299.67042 
    2600    323.46443   -64948.993   -53128.073   -56277.516   -140.78099    1533959.3    229.47519 
    2700    326.69089   -65435.326   -53496.495   -58402.662   -219.30705    1533959.3    293.94128 
    2800    324.78156   -65735.572   -53866.517   -59208.713   -238.79764    1533959.3    296.34981 
    2900    324.77714   -66071.876   -54202.983   -61193.523   -312.47915    1533959.3    294.95311 
    3000    328.82615   -66520.658   -54503.794   -63671.435   -409.79613    1533959.3     282.3487 
    3100    331.01702   -66945.447   -54848.519   -65632.297   -482.03794    1533959.3    200.95006 
    3200    339.83893   -67573.383    -55154.06   -68187.345   -582.59152    1533959.3    298.24317 
    3300    329.93115   -67728.839   -55671.593    -68721.69   -583.34301    1533959.3    291.59105 
    3400    327.58152   -68031.802   -56060.423   -70375.614   -639.89307    1533959.3    245.05122 
    3500    321.60941   -68200.251   -56447.122   -71646.423   -679.41309    1533959.3    269.45897 
    3600    331.96445   -68732.757   -56601.206   -73423.139   -751.94519    1533959.3    210.25629 
    3700     327.5816   -68925.455   -56954.074   -74913.872   -802.80807    1533959.3    280.57722 
    3800     320.3498   -68982.494   -57275.397   -75258.886   -803.86704    1533959.3    291.20903 
    3900    320.91274   -69060.587   -57332.918   -75206.368   -798.94829    1533959.3    294.13505 
    4000    305.38954   -68499.605   -57339.226   -73293.927   -713.17967    1533959.3     298.0448 
    4100     310.6161     -68241.7   -56890.318    -71480.02   -652.16378    1533959.3    267.53909 
    4200    315.01326   -67979.673   -56467.598    -69876.22    -599.3692    1533959.3     296.0043 
    4300    316.34157   -67631.898    -56071.28   -68049.485   -535.42912    1533959.3    291.64803 
    4400    317.04033   -67284.164    -55698.01   -65836.891   -453.21083    1533959.3    289.06996 
    4500    321.98501   -67114.316    -55347.46   -65318.786   -445.72109    1533959.3    271.97505 
    4600    317.60803    -66696.31    -55089.41   -63480.906   -375.10224    1533959.3    276.87405 
    4700    316.11862     -66278.9    -54726.43   -60844.465   -273.47791    1533959.3     286.1836 
    4800    315.45072   -65850.735   -54322.674   -59211.373   -218.52627    1533959.3     257.7405 
    4900    318.43676   -65517.342   -53880.157   -57745.817   -172.79612    1533959.3    260.70264 
    5000    317.20093   -65008.049   -53416.027   -54717.259   -58.165459    1533959.3    252.19142 
    5100    320.18037   -64644.715    -52943.81   -52456.044    21.803256    1533959.3    279.23845 
    5200    317.57715   -64088.071   -52482.299   -50792.845     75.51909    1533959.3    281.79649 
    5300    317.11797   -63599.881    -52010.89   -47793.115    188.53572    1533959.3    284.43519 
    5400    312.23024   -62809.131   -51398.761   -44215.211    321.10671    1533959.3    247.13022 
    5500     311.5127    -62150.58   -50766.432   -40986.103     437.1835    1533959.3    295.27433 
    5600    311.89181   -61500.361   -50102.358   -37920.263    544.54312    1533959.3    291.50695 
    5700    313.03243   -60898.876    -49459.19   -35254.826    634.93906    1533959.3    284.78996 
    5800    320.04955   -60537.959   -48841.835    -33344.25    692.74641    1533959.3    272.61993 
    5900    317.84667   -59834.551    -48218.93   -30026.511    813.20627    1533959.3    279.72265 
    6000    316.50107   -59125.814   -47559.367   -26683.258    933.16801    1533959.3    282.85652 
    6100    316.53321   -58453.625   -46886.004   -23624.699    1039.7869    1533959.3    277.62985 
    6200    330.49159   -58662.883   -46585.157   -24049.892    1007.3327    1533959.3    296.77379 
    6300    335.59182   -59098.473    -46834.36   -26595.207    904.69588    1533959.3    295.94457 
    6400    333.83561   -59743.054   -47543.122   -29909.238    788.23958    1533959.3    294.31936 
    6500    328.72359   -60207.715     -48194.6   -32894.227    683.93099    1533959.3    290.78566 
    6600    327.62512   -60741.943   -48768.971    -34950.41    617.69363    1533959.3    235.34946 
    6700     325.9908   -61236.258   -49323.011   -37875.977     511.6857    1533959.3    288.78953 
    6800    327.50389   -61802.114   -49833.573   -40676.731    409.31342    1533959.3    290.01899 
    6900     333.5827   -62547.506   -50356.816   -43142.526    322.48077    1533959.3    289.38688 
    7000    324.57637   -62632.736    -50771.18   -45008.607    257.58865    1533959.3    279.75716 
    7100    328.49552   -63210.303   -51205.522    -47413.66     169.4973    1533959.3    275.73045 
    7200    327.33883   -63567.174   -51604.664   -49173.696    108.66498    1533959.3    305.68969 
    7300     330.7204   -64036.395   -51950.307   -51354.883     26.61561    1533959.3    308.02511 
    7400    329.36456   -64393.981   -52357.442   -52867.379    -22.79434    1533959.3    304.22784 
    7500    328.78203   -64773.322   -52758.071   -54844.735   -93.274467    1533959.3    297.06827 
    7600    330.36988   -65196.633   -53123.355   -56276.325   -140.93866    1533959.3    235.66948 
    7700    321.00397   -65257.776   -53526.772   -57053.683    -157.6539    1533959.3    287.91648 
    7800    327.26031    -65825.25    -53865.61   -59996.684   -274.06074    1533959.3    293.90235 
    7900    329.44512   -66239.426   -54199.943   -61797.562   -339.61573    1533959.3    299.55463 
    8000    330.76496   -66610.653   -54522.936   -63226.708   -389.06105    1533959.3    287.40413 
    8100    332.53463   -67013.666   -54861.277   -65901.446    -493.4987    1533959.3    240.46323 
    8200    333.98801   -67421.846   -55216.344   -67437.446   -546.28671    1533959.3    292.43965 
    8300    332.68556   -67771.649   -55613.744   -68934.812   -595.45552    1533959.3    296.05424 
    8400    325.78827   -67930.943   -56025.098   -70601.699   -651.57818    1533959.3    292.27703 
    8500    328.62738   -68330.676   -56321.077   -71635.566   -684.56198    1533959.3    289.17779 
    8600    325.54514   -68532.009   -56635.049   -72680.788   -717.24908    1533959.3    277.70926 
    8700    326.73693   -68799.141   -56858.628   -74305.264   -779.86955    1533959.3    256.09363 
    8800    324.21458    -68988.18   -57139.845   -75466.372   -819.20095    1533959.3    280.93768 
    8900     318.3844   -69015.465   -57380.192   -75541.532   -811.81704    1533959.3    275.03056 
    9000    309.07601   -68744.289   -57449.189   -74687.116   -770.54021    1533959.3    260.99562 
    9100    306.97883   -68307.229    -57088.77   -72108.595    -671.3904    1533959.3    253.63011 
    9200    313.47337   -68072.301   -56616.501   -70764.441    -632.4169    1533959.3    293.55822 
    9300    319.30355   -67834.265   -56165.402   -68758.727    -562.9252    1533959.3    294.30201 
    9400     320.1429   -67482.291   -55782.755   -66917.207   -497.71316    1533959.3    264.04097 
    9500    312.49665   -66872.341   -55452.235   -64732.619   -414.83578    1533959.3    272.26812 
    9600     318.7863   -66715.944   -55065.985   -62908.442   -350.56007    1533959.3    274.10491 
    9700    317.29336   -66298.348   -54702.947   -60937.862   -278.70246    1533959.3     279.4552 
    9800    320.93102   -66025.116   -54296.778    -59981.48   -254.10779    1533959.3    287.93625 
    9900    315.22829   -65385.311   -53865.378   -56780.043   -130.28639    1533959.3    293.10833 
   10000    314.27079   -64896.104   -53411.162   -54204.108     -35.4449    1533959.3    290.15362 
   10100    322.57816   -64746.599   -52958.066   -53023.583   -2.9286258    1533959.3    274.51628 
   10200    316.58873   -64073.988   -52504.338   -50263.369    100.17195    1533959.3    298.35709 
   10300     320.6493   -63741.154   -52023.112   -48738.426     146.8264    1533959.3    300.33712 
   10400    317.26114   -63035.118   -51440.895   -45412.921    269.45217    1533959.3    295.09941 
   10500    317.58456   -62408.687   -50802.644    -41983.79    394.20529    1533959.3    295.21593 
   10600    313.48599   -61566.127   -50109.866   -37940.032    543.99503    1533959.3    269.10076 
   10700    315.86575   -61022.599    -49479.37   -35020.669      646.308    1533959.3    291.65147 
   10800    316.19156   -60325.555    -48770.42    -31489.68    772.45397    1533959.3    292.79589 
   10900     318.9603   -59768.092   -48111.774   -28546.586    874.56943    1533959.3    290.40132 
   11000    321.92843   -59248.405   -47483.617   -26666.093    930.54921    1533959.3    274.42288 
   11100    319.69778   -58559.966   -46876.697   -23221.732    1057.3836    1533959.3    259.19229 
   11200    319.56154   -58059.393   -46381.102    -20750.53    1145.6938    1533959.3    290.43168 
   11300    332.70511   -58640.664   -46482.045   -23047.737    1047.5202    1533959.3    294.54734 
   11400    340.26692   -59706.955   -47271.992   -27936.245    864.31338    1533959.3    286.93579 
   11500    332.27596   -60128.078   -47985.142   -30917.263      762.939    1533959.3    285.15377 
   11600    331.58641   -60798.106   -48680.369   -34284.355    643.50589    1533959.3    265.38854 
   11700    327.56026   -61120.207   -49149.605   -36030.501    586.42767    1533959.3    288.33649 
   11800    325.10259    -61540.99   -49660.203   -38022.838    520.19352    1533959.3    288.76129 
   11900    327.10483   -62054.451   -50100.493   -40423.208    432.57736    1533959.3    292.20963 
   12000    326.86239    -62482.65   -50537.552   -43535.749    312.98256    1533959.3    288.10555 
   12100     325.4953    -62852.87   -50957.732   -45062.598    263.51417    1533959.3    222.01059 
   12200     327.6517   -63291.482   -51317.539   -47181.131    184.89859    1533959.3    288.65358 
   12300    325.86205   -63610.521    -51701.98   -49161.855    113.54434    1533959.3    295.78616 
   12400    330.38377   -64141.983   -52068.197   -51269.516    35.701281    1533959.3    297.22448 
   12500    320.33711   -64158.527   -52451.893   -52045.498     18.16598    1533959.3    293.95694 
   12600     327.2231   -64762.981   -52804.701   -54627.696   -81.488416    1533959.3    273.39132 
   12700    328.47117    -65190.03   -53186.139   -57116.606   -175.69299    1533959.3    293.53582 
   12800    324.83972   -65427.762   -53556.582   -56939.906   -151.23552    1533959.3    293.66407 
   12900    333.84816   -66075.461    -53875.07   -60204.146   -282.91149    1533959.3    296.61282 
   13000    329.55069   -66329.411    -54286.07   -62238.716    -355.4855    1533959.3    292.44556 
   13100    328.26439   -66659.329   -54662.995   -63908.852   -413.29244    1533959.3    278.05039 
   13200    334.35792   -67190.968   -54971.948   -65848.928   -486.20409    1533959.3    298.25101 
   13300    329.81745    -67426.31    -55373.22   -66938.451   -516.96911    1533959.3    295.15423 
   13400    331.92585   -67832.138   -55701.997   -69281.886   -607.02488    1533959.3    290.94037 
   13500    331.91829   -68181.449   -56051.584    -70716.28   -655.51606    1533959.3    287.19612 
   13600      325.351   -68328.627   -56438.762   -71674.399   -681.03726    1533959.3     267.5164 
   13700    324.19633   -68584.916   -56737.248   -73106.069   -731.69093    1533959.3    293.62028 
   13800    329.79221   -68983.329   -56931.161   -74614.014   -790.42854    1533959.3    289.00563 
   13900    324.12362   -69095.655   -57250.644   -75444.634    -813.2765    1533959.3    298.12657 
   14000    320.40424   -69138.413   -57429.327   -75559.468   -810.42244    1533959.3    288.69193 
   14100    322.02877   -69230.006   -57461.552   -76178.997   -836.67509    1533959.3    272.77986 
   14200    306.01984   -68729.778   -57546.366   -74062.339    -738.2687    1533959.3    279.09798 
   14300    312.17054   -68534.169   -57125.981   -73287.249   -722.41327    1533959.3    292.96481 
   14400    312.04546   -68126.519   -56722.902   -70768.941   -627.86192    1533959.3    281.38493 
   14500     312.9466   -67746.406   -56309.857   -68333.969   -537.48123    1533959.3    283.29326 
   14600    322.05252   -67619.682    -55850.36   -67901.069   -538.67012    1533959.3    269.85389 
   14700    322.10288    -67232.78   -55461.617   -65717.548   -458.44302    1533959.3    262.62987 
   14800    320.16788   -66841.661   -55141.212   -63344.145   -366.67344    1533959.3    280.40428 
   14900    316.51123   -66370.476   -54803.659   -61372.513   -293.62965    1533959.3    280.53556 
   15000    314.38234   -65891.095   -54402.077   -58756.682   -194.65207    1533959.3    266.91443 
   15100    316.17536   -65534.418   -53979.874   -56840.396   -127.86612    1533959.3    244.38457 
   15200    317.57953    -65142.22   -53536.361   -55093.646   -69.611081    1533959.3    267.11977 
   15300    317.74458   -64668.742   -53056.851   -52738.161    14.245539    1533959.3    276.62515 
   15400    314.99566   -64065.972    -52554.54   -49107.213    154.09651    1533959.3    286.19922 
   15500    310.25934   -63314.497   -51976.153   -46083.126    263.41995    1533959.3    282.64475 
   15600    314.33759   -62864.748   -51377.366   -43947.754    332.10574    1533959.3    278.57468 
   15700    313.66132   -62183.763   -50721.094   -40688.982    448.43823    1533959.3    265.21972 
   15800     312.4218       -61429    -50011.63   -37249.969    570.44985    1533959.3    245.25254 
   15900    323.53118   -61233.797   -49410.437   -36079.622    595.89121    1533959.3    242.91894 
   16000    314.38256   -60111.229   -48622.203   -30190.446    823.90476    1533959.3    254.21164 
   16100    314.54967   -59371.582   -47876.449   -26847.416    940.00374    1533959.3    255.06483 
   16200    315.76175   -58725.368    -47185.94   -23865.398    1042.4348    1533959.3    270.78562 
   16300    318.57015   -58291.641    -46649.58    -21430.31    1127.3085    1533959.3    286.65027 
   16400    339.64385   -59064.187   -46651.993   -25082.356    964.16889    1533959.3    285.00264 
   16500    334.34214   -59253.549   -47035.106   -26126.523    934.61957    1533959.3    284.18061 
   16600    331.30643   -59902.505   -47795.001   -30065.723    792.50374    1533959.3    285.16502 
   16700    328.71928   -60486.452   -48473.494   -32285.137    723.62414    1533959.3    283.92725 
   16800    326.99725   -60986.513   -49036.487   -35755.747    593.65284    1533959.3    288.08062 
   16900    331.83808     -61715.9   -49588.966   -39222.575    463.38061    1533959.3    287.77722 
   17000    325.07077   -61888.731   -50009.107   -40608.776    420.19743    1533959.3    284.35593 
   17100    330.36202   -62559.616   -50486.625   -43585.476    308.48333    1533959.3      253.936 
   17200    327.98118   -62868.189   -50882.205   -44697.226    276.47029    1533959.3    278.20125 
   17300    325.68746   -63145.321    -51243.16   -46645.955    205.49637    1533959.3    287.80368 
   17400    326.35569   -63574.892   -51648.311   -48547.852    138.59142    1533959.3     287.9663 
   17500    328.07662   -64028.947   -52039.475   -50599.479     64.36823    1533959.3    296.03146 
   17600    327.42028   -64410.683   -52445.197   -52364.789    3.5942305    1533959.3    294.64003 
   17700    328.55454   -64860.288   -52853.351   -55130.643   -101.79561    1533959.3    291.20741 
   17800    328.23406    -65247.43   -53252.204    -56939.22   -164.81066    1533959.3    291.87452 
   17900    330.35806   -65670.241   -53597.394   -58751.862   -230.40615    1533959.3    293.00759 
   18000     329.1747   -66002.224   -53972.623   -60463.402   -290.13964    1533959.3    294.34456 
   18100    326.98756   -66267.023    -54317.35   -62189.108   -351.86979    1533959.3    285.78036 
   18200    329.38772   -66683.296    -54645.91   -63684.267   -404.01713    1533959.3    295.42095 
   18300    331.67874   -67075.543   -54954.433   -65585.803   -475.22523    1533959.3    292.51654 
   18400    329.99206   -67380.045   -55320.574    -67334.28   -537.01606    1533959.3    293.13824 
   18500    329.55814   -67694.575   -55650.961   -68508.356   -574.72919    1533959.3    289.56809 
   18600    327.34153   -67944.016   -55981.408   -70189.956   -635.12609    1533959.3    281.35171 
   18700     327.5814   -68266.723   -56295.349   -70868.539   -651.42574    1533959.3    286.05829 
   18800      324.449   -68434.233   -56577.331    -72440.22   -709.07564    1533959.3    293.16754 
   18900    323.13081   -68666.803   -56858.074   -73583.557   -747.63384    1533959.3    285.90542 
   19000    320.42991   -68793.094   -57083.069   -73896.258   -751.55432    1533959.3    287.00667 
   19100     321.8967    -68890.78   -57127.152   -74262.893   -765.97248    1533959.3    223.43869 
   19200    305.89979   -68268.187   -57089.161   -72141.918   -672.86251    1533959.3    252.78191 
   19300    313.88575   -68098.448   -56627.578   -71065.085   -645.36067    1533959.3    264.21894 
   19400    309.80415   -67554.395   -56232.685   -68227.341   -536.16449    1533959.3    278.69815 
   19500    312.97414   -67230.439   -55792.883   -66385.676   -473.50084    1533959.3    275.56034 
   19600     311.5452   -66778.589   -55393.253       -63552   -364.69829    1533959.3    262.07914 
   19700    318.49096    -66570.15   -54930.984   -63160.087   -367.84323    1533959.3    294.77152 
   19800     315.0574   -66013.335   -54499.647   -59854.206   -239.35031    1533959.3    286.87652 
   19900    316.19581   -65583.979   -54028.688   -57646.931   -161.73647    1533959.3    270.98576 
   20000    313.57506   -64983.845   -53524.328   -54985.244   -65.303363    1533959.3    259.44368 
   20100    312.08748   -64370.777   -52965.624   -52254.384    31.792617    1533959.3    269.87577 
   20200    315.29579   -63896.657   -52374.258   -49378.415    133.91499    1533959.3    298.15137 
   20300    311.40539    -63091.56   -51711.334   -45415.983    281.40395    1533959.3    295.22051 
   20400    311.37631   -62398.609   -51019.446   -41936.298    406.01925    1533959.3    295.31196 
   20500    310.60874   -61591.503    -50240.39   -38300.471    533.71776    1533959.3    290.05169 
   20600    313.58442   -60927.244   -49467.386   -35215.517     637.0626    1533959.3    242.59312 
   20700    312.75774   -60050.841   -48621.193   -30227.491     822.2037    1533959.3    282.19634 
   20800    324.07082   -59829.921    -47986.84   -29440.006    829.04871    1533959.3    288.09229 
   20900    324.54689   -59205.343   -47344.864   -26026.514     952.9363    1533959.3     287.2028 
   21000    323.17924   -58552.526   -46742.028   -23204.654    1052.1273    1533959.3    278.43377 
   21100    323.56111   -58052.513   -46228.059   -21130.534    1121.8665    1533959.3    256.28861 
   21200     340.6115   -59046.135    -46598.58   -24761.395    976.12832    1533959.3    280.67429 
   21300    335.12784   -59619.411   -47372.254   -29396.085    803.53985    1533959.3    276.14235 
   21400    326.60285   -60018.789   -48083.175   -31512.911     740.6955    1533959.3    278.09519 
   21500    328.00348   -60735.768   -48748.969   -35050.343    612.33247    1533959.3    282.52424 
   21600    326.88326   -61271.876   -49326.016   -37444.539    531.10538    1533959.3    289.83402 
   21700    325.42471   -61704.965   -49812.406   -40116.063    433.42926    1533959.3    287.56374 
   21800    323.91999   -62044.011   -50206.442   -42162.441    359.56911    1533959.3    290.63937 
   21900    326.40917   -62260.982   -50332.447   -43052.991    325.39375    1533959.3    284.01262 
   22000    323.94417   -62290.961   -50452.508   -43229.655    322.86359    1533959.3    284.37463 
   22100     330.4406   -62999.981   -50924.118   -46322.256    205.70455    1533959.3    252.77094 
   22200    325.28267   -63248.279   -51360.912   -47821.267    158.22313    1533959.3     294.5674 
   22300    324.56854   -63600.537   -51739.267   -49861.979    83.915301    1533959.3    270.45003 
   22400    323.98213    -63802.31    -51962.47   -50380.031    70.735496    1533959.3    280.56634 
   22500    327.10507   -64112.042   -52158.075   -51900.733    11.503274    1533959.3    280.96515 
   22600     326.1915   -64401.456   -52480.876   -53245.642   -34.185287    1533959.3    297.49327 
   22700    307.41407   -63920.858   -52686.494   -51518.917    52.191032    1533959.3    284.52182 
   22800    302.21066   -63142.889   -52098.681   -48239.678    172.49857    1533959.3     275.7852 
   22900    308.00145   -62677.081   -51421.251   -45628.065    258.95704    1533959.3    288.29982 
   23000    310.63129   -62075.815   -50723.878   -42452.837    369.71791    1533959.3      287.491 
   23100    306.55084   -61058.086   -49855.268   -37560.272    549.58978    1533959.3    263.31311 
   23200    310.71376   -60386.975   -49032.024   -33999.127    671.97477    1533959.3    295.21427 
   23300    314.29655   -59703.384   -48217.501   -30508.042    791.61784    1533959.3     293.0858 
   23400    313.61633   -58815.865   -47354.841   -25604.102    972.26419    1533959.3     292.7873 
   23500    320.81227   -58382.829   -46658.831   -23960.798    1014.6085    1533959.3    292.17462 
   23600    326.33717   -58156.438   -46230.534   -22089.011    1079.1329    1533959.3    260.78677 
   23700     329.7952   -58609.343   -46557.066   -23769.202     1018.624    1533959.3    288.01356 
   23800    328.29235   -59220.894   -47223.539   -27913.767    863.15226    1533959.3    290.27731 
   23900    329.54148    -59994.52   -47951.515    -32003.61    712.87588    1533959.3    286.39347 
   24000    322.72362   -60262.644   -48468.796   -33982.437    647.54437    1533959.3    278.09538 
   24100    315.59526   -60419.629   -48886.285   -35194.947    612.00667    1533959.3    289.12835 
   24200    325.42394   -61206.325   -49313.795   -38218.827     495.9482    1533959.3    288.86968 
   24300    325.28063   -61598.778   -49711.485    -40014.74    433.44724    1533959.3    291.34374 
   24400     326.3866   -61780.701    -49852.99   -41422.278    376.85522    1533959.3    291.70685 
   24500    319.73894   -61635.545   -49950.772    -40056.98    442.25529    1533959.3    291.25817 
   24600    307.85941   -60782.617   -49531.978   -37043.444    558.24102    1533959.3    207.65978 
   24700    305.67014    -59779.21   -48608.577   -31880.103    747.76753    1533959.3    278.26475 
   24800    312.26082   -59226.667   -47815.179   -28938.951    843.77273    1533959.3    285.17316 
   24900    326.47732    -59154.01   -47222.984   -29064.913    811.67091    1533959.3    282.25939 
   25000    320.21912   -58159.928   -46457.607   -23463.758    1027.8316    1533959.3    281.93647 
   25100    334.80443   -58511.443   -46276.105   -24994.265    951.30425    1533959.3    212.32725 
   25200     333.0318   -58555.127   -46384.569   -24755.178    966.83992    1533959.3    289.47076 
   25300    333.53467   -59415.223   -47226.288   -29882.627    775.26655    1533959.3    285.10105 
   25400    326.28571   -59788.982   -47864.959   -31320.734    739.53152    1533959.3    277.07268 
   25500    319.41084   -60013.016   -48340.233   -33097.441    681.35711    1533959.3    290.04928 
   25600    324.33461    -60583.26   -48730.539   -35159.714    606.61973    1533959.3    202.50129 
   25700     327.8348   -60946.464    -48965.83    -37084.14    531.11489    1533959.3    276.73539 
   25800    319.17532   -60701.104   -49036.928   -36744.075    549.49401    1533959.3    278.15329 
   25900    301.66282   -59685.672   -48661.486   -32278.495    732.32434    1533959.3    274.88996 
   26000    311.91766   -59335.632   -47936.685   -29902.844    806.11778    1533959.3    265.60634 
   26100    314.81804    -58623.06    -47118.12   -27123.153    893.78066    1533959.3    284.56795 
   26200     329.1415   -58727.345   -46698.957   -26269.563     913.1997    1533959.3     294.2473 
   26300    321.92679   -57979.486   -46214.758   -22663.504    1052.7477    1533959.3    292.12192 
   26400    338.31794   -58976.372   -46612.634   -27645.795    847.82309    1533959.3    292.69638 
   26500     332.9865    -59521.32   -47352.418    -29543.77    796.05161    1533959.3    293.78481 
   26600    327.79484   -59922.531   -47943.356   -33055.809    665.47757    1533959.3    222.36015 
   26700    319.68698   -60007.463   -48324.588   -33254.394    673.64194    1533959.3    291.30813 
   26800    312.10051   -59898.728   -48493.099   -32800.524    701.46255    1533959.3    291.49682 
   26900    335.61286   -61271.128   -49006.246   -38934.533    450.20844    1533959.3    286.99351 
   27000    333.49213   -61812.196   -49624.816   -41719.837    353.35481    1533959.3    279.00385 
   27100    331.28241   -62346.685   -50240.058   -44064.106     276.0668    1533959.3    296.77904 
   27200     327.0069   -62729.951   -50779.572   -46324.381    199.14829    1533959.3    302.81378 
   27300    327.06657   -63158.303   -51205.743   -48251.323    132.06343    1533959.3    291.40406 
   27400    320.88215   -63219.108   -51492.556   -48469.966    135.11065    1533959.3    298.77769 
   27500    307.67986   -62854.125   -51610.047     -47857.6    167.73544    1533959.3     298.9161 
   27600    324.84549   -63406.622   -51535.231   -48893.228    118.09828    1533959.3     233.0736 
   27700    302.49211   -62430.376   -51375.883   -45063.567     282.1623    1533959.3    294.97655 
   27800    310.68506   -62160.165   -50806.263   -43617.746    321.32874    1533959.3    294.77484 
   27900    313.53278   -61609.835   -50151.864   -40469.058    432.82416    1533959.3    293.56602 
   28000    315.63374   -61055.866   -49521.115   -37677.023    529.43425    1533959.3    263.04014 
   28100    315.34426   -60415.718   -48891.547   -34113.991    660.56095    1533959.3    290.32373 
   28200    310.40675   -59494.689   -48150.958   -30543.984    787.03671    1533959.3    251.32072 
   28300    310.58438   -58700.261   -47350.038   -27104.141    904.99735    1533959.3    269.34874 
   28400    320.99389   -58513.892   -46783.256    -24514.62    995.41433    1533959.3    266.07627 
   28500    332.58368   -58553.703   -46399.522   -24703.455    969.82034    1533959.3    286.77453 
   28600     339.9201   -59056.778   -46634.489   -27165.263    870.27989    1533959.3    286.23125 
   28700    330.43819   -59309.994   -47234.219   -28590.049    833.39964    1533959.3    293.35228 
   28800    329.50855   -59930.098   -47888.297    -32472.82     689.0762    1533959.3    293.07556 
   28900     326.4875   -60353.493   -48422.095   -34457.033    624.24222    1533959.3    289.01061 
   29000    329.92538   -60989.342   -48932.308   -38395.367    471.00424    1533959.3    287.20202 
   29100     334.0666   -61735.802   -49527.428   -41012.569    380.61658    1533959.3      270.423 
   29200     329.9027   -62094.647   -50038.442   -42433.912    339.92462    1533959.3    291.77483 
   29300     326.9609   -62470.205   -50521.507   -45151.776     240.0285    1533959.3    291.41014 
   29400    321.89119   -62703.268   -50939.841   -45867.423     226.7385    1533959.3     293.1786 
   29500    322.08571   -63079.206    -51308.67   -48102.129    143.33329    1533959.3    292.03649 
   29600    323.88788   -63534.693   -51698.297   -49750.031     87.08804    1533959.3    291.78335 
   29700      334.606   -64398.297   -52170.211   -54133.727   -87.769719    1533959.3    296.06385 
   29800    331.40934   -64758.129   -52646.864   -55433.401   -124.55899    1533959.3    281.59897 
   29900    323.21164   -64863.322   -53051.639   -56545.961   -156.19715    1533959.3    287.83014 
   30000     325.6629    -65259.49   -53358.227   -57892.321   -202.67528    1533959.3    278.49958 
   30100     316.5449   -65214.573   -53646.524    -57906.29   -190.41271    1533959.3    261.40928 
   30200    322.77326   -65591.341   -53795.679   -60043.106   -279.26176    1533959.3    293.59952 
   30300     324.8713   -65864.005   -53991.671    -61315.46   -327.37546    1533959.3    296.71123 
   30400     324.9986    -66104.79   -54227.803   -62581.276   -373.40259    1533959.3    281.55285 
   30500    324.12624   -66300.656    -54455.55   -63495.032   -404.06741    1533959.3    286.61109 
   30600    299.30291   -65299.449   -54361.504    -59152.96   -214.17941    1533959.3    253.10361 
   30700    307.61189   -65047.653   -53806.059   -58019.946   -188.36192    1533959.3    295.92891 
   30800    305.03833   -64309.449   -53161.905   -53865.714   -31.460474    1533959.3    292.35832 
   30900    305.30297   -63590.006   -52432.791   -50030.517     107.3823    1533959.3    291.59713 
   31000    308.58717   -62923.931   -51646.696   -46527.983    228.80789    1533959.3    283.97224 
   31100    306.65051    -61948.39   -50741.929   -42036.492     389.1355    1533959.3    174.90988 
   31200    313.44719   -61326.529   -49871.686   -38776.153    495.97346    1533959.3    268.70098 
   31300    312.46155    -60323.87   -48905.047   -33924.448    669.63703    1533959.3    246.96957 
   31400    317.12644   -59629.597   -48040.296   -29892.454    811.21366    1533959.3    275.42228 
   31500    321.01397    -58967.16    -47235.79    -27553.86    879.78784    1533959.3    278.75723 
   31600    327.16504   -58605.933   -46649.775    -24887.19     972.7937    1533959.3    278.77354 
   31700    328.21805   -58264.853   -46270.213   -23449.958    1020.0719    1533959.3    276.02967 
   31800    336.69562   -58676.362   -46371.911   -25973.283    911.82446    1533959.3    288.10555 
   31900    334.99073   -59339.467    -47097.32   -28494.736     831.5408    1533959.3    290.50692 
   32000    328.65459   -59908.902   -47898.308    -31922.41    714.12718    1533959.3    286.63969 
   32100    325.08123     -60401.6   -48521.594   -34675.515    618.92361    1533959.3    284.43596 
   32200    323.82876   -60806.624   -48972.389   -36667.405    550.03626    1533959.3    296.02791 
   32300    317.07268   -60841.151   -49253.815   -37304.877    534.12091    1533959.3    298.05708 
   32400    304.30979   -59811.555   -48690.636   -32901.453    705.78095    1533959.3    268.85995 
   32500    313.21894   -59324.943   -47878.442   -30417.124    780.52584    1533959.3    287.50086 
   32600    315.83941   -58549.392   -47007.126   -26370.002    922.48528    1533959.3    216.38182 
   32700    320.23503   -58053.159   -46350.256   -23195.562    1035.0214    1533959.3    288.53047 
   32800    326.47151   -58030.565   -46099.752   -22472.374    1056.1505    1533959.3    288.95625 
   32900    335.14435   -58872.173   -46624.413   -26654.166    892.67568    1533959.3    285.14892 
   33000     330.3253   -59487.191   -47415.542   -29670.103    793.22614    1533959.3    285.10337 
   33100    326.49541   -60023.061   -48091.374   -32791.602    683.90416    1533959.3    204.11748 
   33200    319.03655   -60207.002   -48547.897   -33976.096     651.3636    1533959.3    296.33306 
   33300    331.05868   -61308.466   -49210.015   -39025.435     455.2536    1533959.3    295.21178 
   33400    327.09166   -61721.015   -49767.539   -40661.395    407.04718    1533959.3     288.1006 
   33500    323.99843   -62046.295    -50205.86   -42887.418    327.13643    1533959.3    297.23227 
   33600    323.75822   -62395.403   -50563.746   -44520.646    270.12829    1533959.3    206.54545 
   33700    323.23302   -62647.735   -50835.271   -45500.537    238.46411    1533959.3    292.88319 
   33800    301.00314   -61740.592   -50740.513    -41989.08    391.19151    1533959.3    299.20418 
   33900     308.5544   -61322.387   -50046.349   -40271.064      436.958    1533959.3    294.14371 
   34000    314.57473   -60775.823   -49279.774   -36316.908    579.44379    1533959.3      289.444 
   34100    311.86998   -59837.258   -48440.053    -32016.31    734.14598    1533959.3    229.53987 
   34200    314.28983    -59087.33   -47601.693   -28475.671     854.9386    1533959.3    297.86637 
   34300    316.13821   -58397.244   -46844.059    -25101.81    971.88465    1533959.3    296.08057 
   34400    322.77734   -58103.409   -46307.598   -22803.811    1050.6259    1533959.3    289.82561 
   34500    335.65873   -58375.162   -46108.604   -24019.013    987.41096    1533959.3    296.61806 
   34600    337.74519   -58955.529   -46612.721   -26426.357    902.33622    1533959.3    289.53451 
   34700    332.01801    -59541.24   -47407.731    -29698.23    791.61974    1533959.3    289.59388 
   34800     329.0928   -60069.392   -48042.784   -32067.921    714.08091    1533959.3    290.82034 
   34900    322.50804   -60372.487   -48586.517   -34625.141    624.07745    1533959.3    293.33772 
   35000    325.80055     -61014.3   -49108.007   -37341.839    525.95103    1533959.3    271.11362 
   35100    327.58649   -61624.837   -49653.277    -39740.81    443.09006    1533959.3     252.7455 
   35200    325.93219   -62007.137   -50096.033   -42427.589    342.78163    1533959.3    283.38398 
   35300    325.46587   -62185.968   -50291.905   -42903.614    330.25871    1533959.3    293.52288 
   35400    313.97841   -61600.669   -50126.412   -40783.048    417.65104    1533959.3    289.66028 
   35500    310.16156   -60717.766   -49382.995    -36712.77    566.36268    1533959.3    292.18582 
   35600    308.89921   -59847.256   -48558.618   -32153.686    733.30512    1533959.3    211.69839 
   35700    312.97286   -59220.308   -47782.799   -28854.375    846.10592    1533959.3    292.49614 
   35800    319.67813   -58755.814   -47073.263   -26012.536    941.42046    1533959.3    291.04111 
   35900    318.79772   -58024.929   -46374.552   -23300.027    1031.4378    1533959.3    290.42505 
   36000    330.50853   -58339.085   -46260.739   -24125.719    989.44165    1533959.3    285.86528 
   36100    337.40885   -59171.802   -46841.286   -27459.774    866.35908    1533959.3     279.6984 
   36200    328.30933    -59526.79   -47528.814   -30242.169     772.7179    1533959.3    297.40847 
   36300    326.31479    -60145.46   -48220.374   -32947.728    682.69157    1533959.3    297.92138 
   36400    326.92647   -60760.837   -48813.397   -35880.514    578.10353    1533959.3    295.12184 
   36500    322.46243   -61035.358   -49251.055   -38142.895    496.53792    1533959.3     295.2309 
   36600    319.59292   -61319.806   -49640.369   -39280.142    463.10506    1533959.3    287.50342 
   36700     335.4856   -62410.713   -50150.482   -44406.222    256.77008    1533959.3    294.16867 
   36800    332.42931   -62931.352   -50782.812   -46622.304    185.97588    1533959.3    290.47473 
   36900    328.17708    -63315.98   -51322.837   -48902.422    108.19321    1533959.3    289.89031 
   37000    321.61569   -63465.135   -51711.776   -49396.888    103.47614    1533959.3    289.39287 
   37100    323.91274   -63830.498   -51993.194    -50971.63    45.664182    1533959.3    254.79275 
   37200    324.15116   -64094.287    -52248.27   -52182.472    2.9411815    1533959.3    279.05676 
   37300    322.49827   -64299.889   -52514.276   -53579.993   -47.637832    1533959.3    287.47189 
   37400    301.32542   -63391.596   -52379.739   -49797.945    115.40693    1533959.3    296.41138 
   37500    304.72368   -62802.992   -51666.947   -47236.788     198.0294    1533959.3    290.06874 
   37600    311.22624    -62358.17    -50984.49   -44717.674    280.12844    1533959.3    290.42324 
   37700    317.27076   -61966.771   -50372.197   -41770.703    384.48918    1533959.3    289.91295 
   37800    309.03676   -60936.294   -49642.629   -37141.878     558.7871    1533959.3    290.32895 
   37900    309.42716   -60143.518   -48835.586   -33241.889    697.04264    1533959.3    286.90949 
   38000    312.81319   -59435.986   -48004.312    -29530.47    825.78594    1533959.3    278.21436 
   38100    316.14551   -58783.238   -47229.785   -26763.113    914.86605    1533959.3    273.89835 
   38200    325.48659   -58573.843   -46679.023   -24957.442     970.9608    1533959.3    290.95651 
   38300    329.87859   -58323.346   -46268.021   -23749.374    1006.5899    1533959.3    285.94635 
   38400    339.47099   -58807.409   -46401.533   -25922.136    915.43485    1533959.3    285.76244 
   38500    331.25003   -59206.659   -47101.216   -28229.502    843.57095    1533959.3    277.79552 
   38600    329.67084   -59928.274   -47880.541   -31894.291     714.5899    1533959.3     282.5545 
   38700    323.95792   -60320.432   -48481.476   -33691.218    661.12874    1533959.3    284.45776 
   38800    327.56056   -61032.538   -49061.926    -36794.98    548.33595    1533959.3      282.608 
   38900    327.88711    -61548.38   -49565.834   -39782.228    437.32995    1533959.3    282.49703 
   39000    330.01201    -62180.44    -50120.24   -42202.909    353.90692    1533959.3    280.46334 
   39100    329.82038   -62750.124   -50696.927   -45748.834    221.18114    1533959.3    230.05266 
   39200    330.39931   -63318.106   -51243.752   -48660.045    115.49242    1533959.3    271.41538 
   39300    320.79993   -63391.824   -51668.277   -49069.611    116.16113    1533959.3    299.83215 
   39400    324.31055   -63905.569   -52053.727   -51166.336    39.666628    1533959.3    302.37499 
   39500    331.04126   -64461.768   -52363.953     -54171.5    -80.79786    1533959.3    302.24731 
   39600    325.07268   -64701.502   -52821.809   -55628.117   -125.44276    1533959.3    209.73502 
   39700    319.70593   -64868.373   -53184.805   -56721.273    -158.0811    1533959.3    298.04395 
   39800    321.23741   -65185.037   -53445.502   -58007.411   -203.91862    1533959.3    297.53231 
   39900    326.57753   -65594.897   -53660.208   -60032.908   -284.86145    1533959.3    297.71731 
   40000    322.38428   -65733.664   -53952.217   -60704.052   -301.80891    1533959.3    292.47636 
   40100    330.54567    -66246.77   -54167.067   -62093.727   -354.32394    1533959.3    260.59444 
   40200    328.10252    -66507.34   -54516.921   -64029.974   -425.23616    1533959.3    297.42449 
   40300    328.53045   -66818.584   -54812.527   -65086.038   -459.22882    1533959.3    304.30377 
   40400    326.22788   -67010.815   -55088.905   -66203.396   -496.82091    1533959.3    300.94827 
   40500     322.7848   -67123.507   -55327.423   -66825.687   -513.97567    1533959.3    298.50297 
   40600    317.78201   -67141.043   -55527.784   -67336.005   -527.83078    1533959.3    210.78101 
   40700    327.40636    -67534.55   -55569.572   -68874.621   -594.73944    1533959.3    300.23909 
   40800     324.7986   -67694.676   -55824.998   -69261.264   -600.60486    1533959.3    297.54455 
   40900    332.96698   -68134.695   -55966.506    -71142.89   -678.38866    1533959.3    297.26071 
   41000    327.41282   -68232.016   -56266.803   -71763.256   -692.69584    1533959.3    291.78762 
   41100    327.31208   -68458.483   -56496.951   -72919.929   -734.11177    1533959.3    190.80187 
   41200     326.3316    -68637.08   -56711.379   -73221.895   -738.02472    1533959.3    281.26077 
   41300    327.89225   -68879.688   -56896.954    -74367.49   -780.93789    1533959.3    280.61814 
   41400    325.39821   -69005.185   -57113.595   -75310.084    -813.3882    1533959.3    280.21338 
   41500    319.56298   -68997.892   -57319.549   -75338.934   -805.47162    1533959.3    299.32952 
   41600    302.62064   -68491.327   -57432.137   -73129.754   -701.68792    1533959.3    294.48571 
   41700    313.26936   -68437.945     -56989.6    -72416.15   -689.57113    1533959.3    288.27921 
   41800    305.61066    -67807.94   -56639.481   -69984.788     -596.539    1533959.3    296.56165 
   41900    305.28396   -67340.613   -56184.092   -66959.333    -481.6563    1533959.3    302.64772 
   42000    304.37365   -66780.281   -55657.028    -64899.16   -413.12593    1533959.3    282.08835 
   42100    311.64464   -66440.584   -55051.614    -62509.67   -333.37722    1533959.3     195.3121 
   42200    312.53005   -65920.794   -54499.467   -59628.418   -229.26556    1533959.3    275.27731 
   42300    316.34996   -65523.153   -53962.228   -57954.353    -178.4491    1533959.3    253.03002 
   42400    311.01488   -64734.339   -53368.383    -53880.37   -22.885953    1533959.3    253.95152 
   42500    315.79166   -64296.621     -52756.1   -51774.286    43.887393    1533959.3     248.2104 
   42600    322.15052   -63996.179   -52223.275   -50228.199     89.18043    1533959.3    274.12587 
   42700    316.18726   -63192.968    -51637.99    -45633.21    268.41536    1533959.3    261.08562 
   42800    312.59765     -62412.4   -50988.602   -42802.458    365.92298    1533959.3    278.58264 
   42900    321.90987   -62201.494   -50437.384   -41389.759    404.43139    1533959.3    276.11871 
   43000    317.63685   -61451.015   -49843.061   -37161.452    566.87152    1533959.3    282.02064 
   43100    318.35934    -60872.94   -49238.584   -35601.747    609.57043    1533959.3    258.69607 
   43200    315.98077    -60056.79   -48509.358   -31175.364    774.83444    1533959.3    295.20638 
   43300    318.27645   -59447.649   -47816.322   -28448.198    865.76063    1533959.3    287.43643 
   43400    318.53247   -58828.732   -47188.049   -24958.187    993.68113    1533959.3    277.42638 
   43500    323.86635   -58571.453   -46735.845    -24605.55    989.23046    1533959.3    278.54841 
   43600    330.48481   -58556.509   -46479.031   -24190.473    996.30482    1533959.3    229.13922 
   43700     339.1367   -59229.026   -46835.366   -25965.413    932.89279    1533959.3    282.01666 
   43800    332.69391   -59703.965   -47545.756   -29479.412     807.5707    1533959.3    276.54326 
   43900    327.75358   -60128.982   -48151.315    -31349.15    751.06154    1533959.3    283.60664 
   44000    326.20071   -60660.076   -48739.159   -34276.868    646.46847    1533959.3    281.49748 
   44100    328.95937   -61361.946   -49340.215   -38196.281      498.137    1533959.3    273.80609 
   44200    329.25216    -61962.16   -49929.728   -41464.586    378.39427    1533959.3    294.93569 
   44300    331.09038     -62587.5   -50487.891   -44520.977    266.72274    1533959.3    288.57196 
   44400    327.93934   -62997.446   -51012.991   -46622.074    196.27524    1533959.3    292.06984 
   44500     325.8616   -63381.314    -51472.79   -48172.709    147.51456    1533959.3    293.81424 
   44600    332.39192   -64075.052   -51927.879   -51262.288    29.752086    1533959.3    283.66131 
   44700    330.80729   -64450.696   -52361.433   -53230.304   -38.838804    1533959.3    295.85543 
   44800    325.38713   -64684.164   -52792.979   -54675.845   -84.164659    1533959.3    295.60959 
   44900    323.90553   -65011.736   -53174.696   -56542.984   -150.56342    1533959.3    295.10024 
   45000    326.87292   -65435.839   -53490.355   -57971.773   -200.32066    1533959.3    289.66028 
   45100    327.47773   -65727.185     -53759.6   -59551.106   -258.88196    1533959.3     245.5542 
   45200    325.40682   -65984.631   -54092.726   -61235.529   -319.28532    1533959.3    297.23164 
   45300    327.91477   -66325.555   -54341.998   -62831.922   -379.50203    1533959.3    293.36952 
   45400    325.30514   -66521.657   -54633.468   -63226.425   -384.10763    1533959.3    292.57653 
   45500    327.60606   -66837.952   -54865.676   -65443.145   -472.81584    1533959.3    301.07054 
   45600    303.37456    -65925.06   -54838.318   -61411.887   -293.84037    1533959.3     299.0896 
   45700    301.56601   -65289.315   -54268.666   -58821.814     -203.527    1533959.3    297.20068 
   45800    305.34882   -64789.163   -53630.272   -55550.604   -85.839374    1533959.3    281.31359 
   45900    307.68794   -64171.573   -52927.199   -52424.122    22.487684    1533959.3    292.08693 
   46000    310.77218   -63581.267   -52224.181   -49401.223    126.18703    1533959.3     280.2336 
   46100    308.84417   -62748.543   -51461.916   -44907.753    292.97292    1533959.3    248.82753 
   46200    312.32572   -62134.257   -50720.398   -42104.468     385.1345    1533959.3    260.83493 
   46300    316.02073   -61570.538   -50021.645   -38992.862    492.98972    1533959.3    278.34692 
   46400    324.89745   -61301.093   -49427.803   -38130.724    504.98261    1533959.3    285.80334 
   46500    316.32717   -60129.601    -48569.51   -32072.859    737.40495    1533959.3      267.374 
   46600    317.31355   -59395.049   -47798.911   -29398.701     822.4946    1533959.3    248.09339 
   46700    320.22374   -58824.289   -47121.798   -25827.511    951.86063    1533959.3    278.08985 
   46800    324.22869   -58396.924   -46548.074   -23478.339    1031.2237    1533959.3    288.11466 
   46900    340.88011   -58937.395   -46480.023   -25507.596    937.47342    1533959.3    291.75534 
   47000    332.22234   -59020.109   -46879.133   -26684.181    902.72005    1533959.3    285.77549 
   47100    332.77315   -59918.278   -47757.173   -30867.048    754.99337    1533959.3    258.12039 
   47200    329.35682    -60484.13   -48447.873   -33958.057    647.69889    1533959.3    296.62058 
   47300    327.80463   -61013.862   -49034.329   -37295.018    524.75054    1533959.3    299.39768 
   47400    327.66904   -61544.186   -49569.609   -39410.857    454.09907    1533959.3    295.12287 
   47500    327.08166   -62093.936   -50140.825   -41717.156    376.54037    1533959.3    296.79311 
   47600    326.36887   -62597.125   -50670.063   -45309.049    239.63882    1533959.3    263.81112 
   47700    310.07556   -62264.429   -50932.801    -44010.79    309.41583    1533959.3    291.19467 
   47800    330.66949   -63178.851   -51094.624   -47727.577    150.50792    1533959.3    292.06882 
   47900    324.88251   -63311.578   -51438.834    -48170.47    146.09681    1533959.3    293.16406 
   48000    321.30183   -63566.822   -51824.932   -49464.399    105.51653    1533959.3    287.81454 
   48100    325.65246   -64044.954   -52144.073   -51334.478    36.189113    1533959.3    241.57857 
   48200     324.9933   -64319.659   -52442.866   -53073.825   -28.204042    1533959.3    253.30615 
   48300    323.28346   -64526.218   -52711.911   -54275.997   -69.915071    1533959.3    294.77049 
   48400    324.87377    -64823.86   -52951.436   -55993.923   -136.00006    1533959.3    284.39064 
   48500    322.19233   -65016.981   -53242.549   -56648.947   -152.26697    1533959.3    275.45176 
   48600    325.53746   -65073.588   -53176.909   -56768.063   -160.52558    1533959.3    282.74783 
   48700    331.41124    -65306.36   -53195.026   -57317.646    -184.2823    1533959.3    297.50761 
   48800    327.67902   -65561.301   -53586.359   -59093.634   -246.17674    1533959.3    286.23594 
   48900    326.96898   -65872.663   -53923.669     -61172.3   -324.01585    1533959.3    279.72358 
   49000    328.26853    -66208.14   -54211.655   -62244.912   -359.08888    1533959.3    290.88185 
   49100    327.30669   -66439.935     -54478.6   -63392.776   -398.46619    1533959.3    273.77016 
   49200    325.38894   -66680.239   -54788.988   -64736.435   -444.65371    1533959.3    298.21899 
   49300    327.40479   -67046.635   -55081.715   -65767.825   -477.67215    1533959.3    283.12421 
   49400    326.25764   -67330.297     -55407.3   -67818.987   -554.80594    1533959.3    282.47058 
   49500    331.17958   -67775.451   -55672.582   -69369.214   -612.24334    1533959.3    301.45809 
   49600    322.78708   -67816.338   -56020.171    -70186.58   -633.24249    1533959.3      274.192 
   49700    327.81931   -68188.339    -56208.27   -71716.526   -693.22344    1533959.3    288.54298 
   49800      323.966    -68337.52   -56498.269   -72229.556   -703.19295    1533959.3    287.89969 
   49900    320.51119   -68451.899   -56738.904   -73313.356   -740.88269    1533959.3    296.36132 
   50000    325.77582   -68774.141   -56868.752   -74737.297   -798.72905    1533959.3    247.25668 
   50100    326.80232    -69009.17   -57066.267   -75610.856   -828.94834    1533959.3     240.9326 
   50200    325.29575   -69122.902   -57235.056   -76068.676   -841.86815    1533959.3    280.57328 
   50300    316.54122   -68919.978   -57352.064   -74916.611   -785.14023    1533959.3    302.61213 
   50400    309.45939   -68431.518   -57122.407   -73516.786   -732.83338    1533959.3    305.76924 
   50500    307.64996    -67965.74   -56722.755   -70837.263   -630.92253    1533959.3    306.17369 
   50600    306.12573   -67447.527   -56260.245   -67979.672    -523.8617    1533959.3    260.80315 
   50700     309.7849   -67074.252   -55753.247   -66174.875   -465.84975    1533959.3    244.53532 
   50800    310.99544   -66644.601   -55279.356   -63677.953   -375.41968    1533959.3    271.63932 
   50900    315.37481   -66297.233   -54771.945   -62185.083   -331.36937    1533959.3    281.80539 
   51000     311.0925    -65627.09   -54258.298   -58820.972   -203.95282    1533959.3    292.63716 
   51100    311.77287   -65109.311   -53715.655   -55590.999   -83.828375    1533959.3    269.93326 
   51200    311.00416   -64446.797   -53081.233   -52569.314    22.882938    1533959.3      278.346 
   51300     312.1765   -63809.747   -52401.341   -49717.089    119.98682    1533959.3    269.80217 
   51400    317.57963   -63369.683   -51763.821   -46679.851    227.25491    1533959.3    218.47325 
   51500    314.38481   -62577.984   -51088.876   -43361.543    345.41397    1533959.3    246.96172 
   51600    318.67892   -62103.662   -50457.626    -40574.95    441.75844    1533959.3    278.78688 
   51700    321.85578   -61608.907   -49846.774   -38256.757    518.07706    1533959.3    291.81908 
   51800    318.21098   -60787.066   -49158.131    -34952.22    635.00827    1533959.3    290.97004 
   51900    315.23539   -59911.084   -48390.891   -30870.694    783.15779    1533959.3    290.73749 
   52000    328.13817   -59886.742   -47895.021    -29280.11    832.09175    1533959.3     288.8295 
   52100    315.60708   -58529.191   -46995.416   -24275.084    1015.6053    1533959.3    252.91665 
   52200    323.23969   -58233.471   -46420.763   -22605.419    1064.5526    1533959.3    290.59809 
   52300    325.83316   -58146.508   -46239.023   -21741.403    1095.0506    1533959.3    288.08972 
   52400    332.95042   -59029.466   -46861.882   -25972.382    933.76657    1533959.3    276.28277 
   52500    326.16179   -59451.426   -47531.931    -29158.44    821.30025    1533959.3    272.88634 
   52600    328.12732   -60258.218   -48266.894   -32482.065    705.58632    1533959.3    274.88618 
   52700    315.80783   -60295.985   -48754.873   -33333.501    689.33969    1533959.3    289.01479 
   52800    327.94659   -61323.047   -49338.327   -38474.358    485.62248    1533959.3     290.7518 
   52900    326.86145   -61778.089   -49833.025   -40396.715    421.80571    1533959.3    283.14485 
   53000    327.24811   -62321.122   -50361.928   -43123.616    323.55458    1533959.3    269.54832 
   53100     328.8609   -62884.488   -50866.355   -46522.039    194.19213    1533959.3    255.26819 
   53200    327.04061   -63245.409   -51293.798   -47921.952    150.72246    1533959.3    278.10681 
   53300    327.34261   -63527.697   -51565.049   -49261.583    102.96558    1533959.3    283.91995 
   53400     329.3693   -63939.305   -51902.592   -51330.676    25.564839    1533959.3    280.25813 
   53500    322.57284   -64075.047   -52286.709   -52259.835    1.2012653    1533959.3    281.43723 
   53600    326.57435   -64540.301    -52605.73   -54095.755   -66.604546    1533959.3    282.20679 
   53700    325.07564   -64723.761   -52843.959   -55455.035   -116.71582    1533959.3    280.94219 
   53800    319.00643   -64768.724   -53110.719   -56058.539   -131.76835    1533959.3    287.94712 
   53900    324.08792   -65158.774   -53315.068   -57656.455   -194.06122    1533959.3    292.32429 
   54000    327.57577   -65541.744   -53570.575   -58964.393   -241.10515    1533959.3    292.79997 
   54100    327.29252   -65863.664   -53902.847   -61170.334   -324.85872    1533959.3     264.2008 
   54200    325.88181   -66095.565   -54186.302   -61886.281   -344.19127    1533959.3    286.11157 
   54300    326.69763   -66403.951   -54464.875   -63636.837   -409.98932    1533959.3    303.82301 
   54400    326.48127   -66677.557   -54746.387   -64499.295   -435.95775    1533959.3    296.87063 
   54500    328.62719   -67024.346   -55014.754   -66707.569   -522.67212    1533959.3     298.6492 
   54600    331.67171    -67382.75   -55261.897    -68010.29   -569.85679    1533959.3    302.91745 
   54700    326.19349   -67499.222   -55578.569   -68199.335   -564.15183    1533959.3    295.15776 
   54800    324.41856   -67715.459    -55859.67   -69422.753   -606.27366    1533959.3    294.32535 
   54900    325.17976   -67955.325   -56071.719   -70607.922   -649.77241    1533959.3    282.44757 
   55000    321.86042   -68068.495   -56306.193   -70849.115   -650.07273    1533959.3    289.85765 
   55100    326.04293   -68394.363   -56479.212   -72609.705   -721.03759    1533959.3    252.63178 
   55200    323.75611   -68538.488   -56706.908   -72857.251   -721.92489    1533959.3    290.49404 
   55300    329.91316   -68867.484   -56810.896   -74083.648    -772.0969    1533959.3    297.90276 
   55400    329.08115   -69000.676   -56974.494   -74457.112   -781.47795    1533959.3    299.73509 
   55500    324.27299    -69058.71    -57208.24   -75223.967   -805.30808    1533959.3    294.91391 
   55600    327.70893   -69235.479   -57259.444   -75968.233   -836.28817    1533959.3    286.69239 
   55700    323.81032   -69233.842   -57400.281   -76263.874   -843.20796    1533959.3    296.22339 
   55800    316.67586   -69127.175   -57554.341   -75878.341   -819.08799    1533959.3    285.03091 
   55900    302.04859   -68631.451   -57593.166    -74104.39   -738.05638    1533959.3    287.87676 
   56000    301.56164   -68286.847   -57266.358   -71658.739    -643.3435    1533959.3    271.63211 
   56100    305.92378   -67975.303   -56795.401    -70225.87   -600.34578    1533959.3    223.47715 
   56200    305.94715   -67499.604   -56318.847   -67523.376   -500.84561    1533959.3    276.04475 
   56300    311.76382    -67192.04   -55798.715     -65982.9   -455.23595    1533959.3    269.86778 
   56400    313.52737    -66755.13   -55297.357   -63659.869   -373.80665    1533959.3    289.47995 
   56500    316.34595   -66375.578   -54814.801   -61505.024   -299.05485    1533959.3    286.24747 
   56600    312.29294   -65767.549   -54354.887   -58528.822   -186.57606    1533959.3    299.01093 
   56700    314.86256   -65336.307   -53829.739   -56458.413   -117.50244    1533959.3    286.31644 
   56800     309.1483   -64545.467   -53247.726   -52045.003    53.762027    1533959.3    285.61961 
   56900    312.65234   -64040.727   -52614.931   -50201.114    107.89832    1533959.3    283.81832 
   57000    314.43472   -63450.479   -51959.547   -46993.623    221.97818    1533959.3    286.64968 
   57100    316.83231   -62918.359   -51339.807    -43918.78    331.72202    1533959.3    272.92647 
   57200    315.59412   -62180.046   -50646.743   -40913.835    435.06375    1533959.3    285.51112 
   57300    317.58134   -61598.161   -49992.236    -37353.15    564.97071    1533959.3    287.41496 
   57400    318.13806   -60962.854   -49336.584   -34709.557    653.83228    1533959.3    284.13036 
   57500     316.6121    -60217.28   -48646.776   -30909.039     792.8819    1533959.3    286.20176 
   57600     319.9183   -59690.115   -47998.786   -29062.709    846.44803    1533959.3    265.97369 
   57700     316.7088   -58817.029   -47242.991   -24434.926     1019.527    1533959.3     289.2406 
   57800     322.9758    -58523.32   -46720.256   -22991.537    1060.6805    1533959.3    278.19812 
   57900     331.8289    -58584.37   -46457.772   -23146.944    1042.0006    1533959.3    285.26839 
   58000    333.01636   -58889.352   -46719.359   -25378.716    953.93276    1533959.3    283.80065 
   58100    328.82248    -59511.66    -47494.93   -28290.631     858.4376    1533959.3    212.10713 
   58200    331.73556   -60399.191   -48276.005   -32167.094    720.07285    1533959.3    291.23531 
   58300    324.09225   -60624.437   -48780.573   -34161.524    653.47561    1533959.3    288.23167 
   58400     329.3555   -61423.246   -49387.038   -38974.843    465.42808    1533959.3    284.96197 
   58500    327.12487   -61881.546   -49926.856    -40629.97    415.57343    1533959.3    285.96682 
   58600    317.61373   -61994.194   -50387.086   -41753.686    385.91542    1533959.3    249.68533 
   58700    324.45859   -62668.769   -50811.517   -44322.682    290.05274    1533959.3    285.61066 
   58800    316.16978   -62743.255   -51188.915   -45472.226    255.53761    1533959.3    293.33772 
   58900    328.40995   -63545.347   -51543.693   -48681.518    127.94005    1533959.3    292.78301 
   59000    327.38117   -63838.534   -51874.477   -49967.191    85.256252    1533959.3    285.66357 
   59100    320.16445   -63935.363    -52235.04   -50652.212    70.752824    1533959.3    285.87697 
   59200    323.62356   -64354.553   -52527.817   -52368.187     7.135517    1533959.3    250.06493 
   59300    328.21232   -64766.067   -52771.636   -54561.101   -79.989621    1533959.3    285.61883 
   59400    322.93321   -64863.301   -53061.793    -54604.52   -68.960318    1533959.3    283.99492 
   59500    327.66702   -65353.906   -53379.403   -57158.019   -168.90523    1533959.3    275.14025 
   59600    329.31317   -65731.824   -53697.162   -59511.078   -259.88366    1533959.3    266.93855 
   59700    325.49817   -65895.273    -54000.03    -60376.56   -285.03267    1533959.3    274.99503 
   59800    330.33051   -66333.718   -54261.878   -62050.288   -348.14413    1533959.3    294.56554 
   59900    326.10388   -66496.698   -54579.319   -63038.364    -378.1217    1533959.3    294.30903 
   60000    328.25776   -66833.138   -54837.047   -64804.652   -445.55476    1533959.3    294.23615 
   60100    326.40912   -67061.141   -55132.608    -65917.19   -482.07389    1533959.3     284.9854 
   60200    327.68664   -67366.903   -55391.682   -67394.061   -536.50973    1533959.3    275.24786 
   60300    326.84598   -67613.022   -55668.523   -68944.981    -593.4614    1533959.3    283.72904 
   60400     326.1467   -67793.171   -55874.228    -69694.46   -617.76829    1533959.3    291.05807 
   60500     326.5939   -68037.843   -56102.556   -70937.778   -663.13859    1533959.3    296.62939 
   60600    326.94071   -68253.031    -56305.07   -71114.053    -661.9657    1533959.3    300.36336 
   60700    326.37263   -68446.164   -56518.964   -72300.591   -705.44322    1533959.3    300.08421 
   60800    324.81939   -68624.645   -56754.208   -73148.634   -732.83547    1533959.3    299.27377 
   60900    322.33881   -68718.207   -56938.422    -74161.37   -769.87063    1533959.3    296.38939 
   61000    319.49635    -68726.27   -57050.362   -73775.125   -747.60167    1533959.3    295.44031 
   61100    312.32036    -68526.91   -57113.246   -72614.954   -692.93073    1533959.3    218.66574 
   61200    306.85995   -68075.019   -56860.905   -71518.893   -655.21624    1533959.3    289.67708 
   61300     305.9891   -67645.315   -56463.026   -68216.579   -525.38717    1533959.3    293.54424 
   61400    306.86694   -67187.012   -55972.642   -66801.178   -484.03862    1533959.3    297.45803 
   61500    313.27731   -66880.784    -55432.15   -64838.015   -420.44487    1533959.3    295.76343 
   61600    314.25444    -66421.41   -54937.066   -61799.329   -306.74512    1533959.3    222.34978 
   61700     312.6699   -65844.616   -54418.178   -59385.945   -222.06057    1533959.3    294.97116 
   61800    308.97444   -65140.039    -53848.65   -56289.254   -109.09566    1533959.3    301.21129 
   61900      312.374   -64645.249   -53229.625   -53371.976   -6.3631427    1533959.3    287.74168 
   62000    308.65581   -63831.196   -52551.452   -49638.376    130.21532    1533959.3    295.47756 
   62100    311.42363    -63228.74   -51847.847   -46275.107    249.10304    1533959.3    223.30653 
   62200    313.64068   -62607.605   -51145.691   -43367.476    347.68841    1533959.3    280.87051 
   62300    312.75055   -61834.946   -50405.561   -38968.918    511.22118    1533959.3    276.91316 
   62400    312.34478   -61050.332   -49635.776   -35952.867    611.62991    1533959.3    274.12282 
   62500    316.81464   -60537.353   -48959.447   -32877.109    718.88503    1533959.3    274.80837 
   62600    318.03543   -59857.108   -48234.589    -29403.97    841.73399    1533959.3    271.52133 
   62700    321.39246   -59296.305   -47551.104   -27645.383    889.79136    1533959.3     276.0671 
   62800    322.35635   -58696.285   -46915.859   -24482.992    1002.7555    1533959.3    273.73854 
   62900    328.65439   -58429.897   -46419.311   -23490.284     1024.934    1533959.3    276.23692 
   63000    331.47444   -58671.426   -46557.782   -23935.497    1011.2225    1533959.3    274.96781 
   63100    335.44253   -59637.252   -47378.595    -29007.08    821.21192    1533959.3    249.45055 
   63200     328.7366   -60116.217   -48102.626   -31682.478    733.98529    1533959.3    296.88828 
   63300    327.21148   -60721.758   -48763.902   -35038.255    613.54035    1533959.3    294.18518 
   63400    328.14899   -61398.701   -49406.585   -38407.517    491.66144    1533959.3    287.28956 
   63500     326.8291   -61903.833   -49959.952   -40571.385     419.6716    1533959.3    294.27414 
   63600     327.3672   -62394.175   -50430.628   -43228.055    321.95709    1533959.3    293.30777 
   63700    327.05823   -62804.483   -50852.228   -45528.057    237.99196    1533959.3    294.14866 
   63800    324.33559   -63096.714   -51243.957   -46947.392    192.05771    1533959.3    290.42666 
   63900    317.71651   -63202.995   -51592.131   -47451.786     185.0746    1533959.3    291.73749 
   64000    322.58682   -63674.869    -51886.02   -49289.712    116.05572    1533959.3    285.40039 
   64100     322.2099   -63921.685   -52146.611   -50647.961     66.99008    1533959.3    290.26064 
   64200    325.58543    -64349.66   -52451.228   -52630.554   -8.0159111    1533959.3    298.90438 
   64300    327.66967   -64724.064   -52749.464   -54593.863   -82.445158    1533959.3    302.31571 
   64400    324.09544    -64908.34   -53064.359    -55518.26   -109.69004    1533959.3    298.25907 
   64500    329.61216   -65377.685   -53332.097    -57826.02   -200.87962    1533959.3    299.63638 
   64600    319.99364    -65331.46   -53637.378   -57417.799   -168.98587    1533959.3    239.10572 
   64700    329.17305   -65887.404   -53857.863   -60539.446   -298.66862    1533959.3    301.11398 
   64800    327.19456   -66104.521   -54147.283    -61678.63   -336.65334    1533959.3    299.62824 
   64900    328.72974    -66405.65    -54392.31   -63189.744   -393.24782    1533959.3    299.42995 
   65000    328.73064   -66651.556   -54638.183   -64375.576   -435.26418    1533959.3    291.96656 
   65100    325.60576   -66819.042   -54919.867   -65160.283   -457.74951    1533959.3    241.94855 
   65200    326.98453   -67095.824   -55146.262   -66061.152   -487.89864    1533959.3    298.17447 
   65300    322.56309    -67223.09   -55435.109   -66488.281   -494.07995    1533959.3      304.116 
   65400    330.03856   -67643.002   -55581.831   -68216.687   -564.78162    1533959.3    302.27911 
   65500    322.93463   -67681.643   -55880.084   -69047.922   -588.60611    1533959.3    305.04073 
   65600    328.02688    -68004.38   -56016.725   -70319.344    -639.3311    1533959.3    268.92563 
   65700    324.87624   -68143.694    -56271.18   -71048.271   -660.54018    1533959.3     305.5031 
   65800    321.07589   -68232.849   -56499.217   -71610.037   -675.45796    1533959.3    301.52918 
   65900    328.18123   -68528.908   -56535.613   -72707.824    -722.9024    1533959.3    299.44406 
   66000    331.62509   -68840.647   -56721.498   -74127.862   -778.06943    1533959.3    299.16576 
   66100    327.23013   -68971.959   -57013.422   -74512.312   -782.20535    1533959.3    228.34595 
   66200    326.07819   -69128.444   -57212.004   -75476.957   -816.44859    1533959.3    305.83925 
   66300    323.42457    -69153.48   -57334.016    -75750.69   -823.23052    1533959.3    304.62467 
   66400    322.65851   -69222.681   -57431.213   -75259.668   -796.93698    1533959.3    304.29449 
   66500    322.61844   -69265.139   -57475.134   -76136.507   -834.16865    1533959.3    304.59282 
   66600    302.73201   -68618.306   -57555.047   -73499.138   -712.70538    1533959.3     235.2919 
   66700      306.791   -68412.479   -57200.885   -72704.305   -693.00726    1533959.3    300.92301 
   66800    300.29326   -67805.649   -56831.512   -69767.466   -578.24078    1533959.3    308.11042 
   66900    307.95254   -67542.352   -56288.309   -68176.283   -531.39578    1533959.3    303.40916 
   67000     310.8859   -67096.907   -55735.665   -66074.418   -462.14517    1533959.3    295.83603 
   67100    312.32565   -66585.343   -55171.486   -63053.377   -352.32275    1533959.3    233.58762 
   67200    310.42596   -65940.518   -54596.085   -59887.472   -236.52651    1533959.3    293.11058 
   67300     311.9854   -65388.499   -53987.076   -57171.095   -142.32656    1533959.3    279.35693 
   67400    309.83521   -64675.457   -53352.612   -53237.841    5.1303089    1533959.3    282.75756 
   67500    311.80818   -64071.056    -52676.11   -51057.511    72.351807    1533959.3    288.19424 
   67600    308.94446   -63202.641   -51912.349   -45862.863    270.41374    1533959.3    278.45854 
   67700    312.45238   -62578.586   -51160.098   -42948.012    367.08257    1533959.3    275.52233 
   67800    316.81556   -62011.055   -50433.116   -38643.498    526.99926    1533959.3    277.97613 
   67900    316.46287   -61220.469   -49655.418   -35477.764    633.74515    1533959.3    283.20278 
   68000    313.14858   -60279.796   -48835.866   -32375.094    735.80115    1533959.3    275.68332 
   68100    316.26109   -59693.058   -48135.381   -28830.956    862.91329    1533959.3    285.41592 
   68200    315.49949   -58892.327   -47362.483   -25084.831    995.81732    1533959.3    289.87428 
   68300    320.51307   -58455.126   -46742.062    -23323.93    1046.7971    1533959.3    283.06326 
   68400    336.61652   -58754.899   -46453.338   -23684.868    1017.7571    1533959.3    285.39534 
   68500    323.29346   -58308.966   -46494.293   -21936.127     1097.757    1533959.3    290.38041 
   68600    334.88585   -59732.287   -47493.974   -29579.536    800.78044    1533959.3    169.65973 
   68700    330.31402   -60283.569   -48212.332   -32088.815    720.72577    1533959.3    289.25736 
   68800    325.40106   -60744.361   -48852.667   -34555.149    639.10311    1533959.3    288.59936 
   68900    326.28911   -61379.443   -49455.295   -37759.818    522.79112    1533959.3    288.03175 
   69000    329.26473   -62018.635   -49985.744   -40657.998    416.95287    1533959.3    288.47034 
   69100    306.45228   -61398.765   -50199.549   -39111.896    495.62124    1533959.3    185.57044 
   69200    325.56493   -62381.749   -50484.066   -42662.156    349.64162    1533959.3    278.40346 
   69300    323.53988   -62648.561   -50824.883   -44229.284    294.82516    1533959.3    278.28413 
   69400    326.13633   -62949.744   -51031.179   -45578.449    243.73858    1533959.3    272.02585 
   69500    329.03531   -63312.105   -51287.598   -47437.386    172.10558    1533959.3    265.54429 
   69600    323.43504   -63537.891   -51718.044   -48273.622    153.96663    1533959.3    273.43249 
   69700    313.01297   -63442.837   -52003.863   -48932.651    137.28404    1533959.3    278.05113 
   69800    328.20271   -64160.782   -52166.702   -51047.145    50.044535    1533959.3    278.08136 
   69900    323.49444   -64319.799   -52497.782   -52779.717   -12.602588    1533959.3    285.10512 
   70000    328.85529    -64859.44   -52841.512   -55040.823    -98.30982    1533959.3    287.42225 
   70100    326.08172   -65062.807   -53146.238   -56423.061   -146.47489    1533959.3    224.26159 
   70200    328.60693   -65421.257   -53412.405   -58035.721   -206.66352    1533959.3    218.03634 
   70300    322.87171   -65497.072   -53697.813   -58974.942   -235.88916    1533959.3     210.5383 
   70400    327.16485   -65849.867   -53893.716   -59635.274   -256.64926    1533959.3    228.22195 
   70500    323.38382   -65989.711   -54171.736   -60735.656   -293.40905    1533959.3    239.46187 
   70600    322.08976   -66190.941   -54420.257   -61709.984   -325.85287    1533959.3    272.61851 
   70700    321.30447   -66427.208   -54685.223   -63887.263   -411.33381    1533959.3    269.60793 
   70800    324.21701   -66745.354   -54896.931   -64256.855   -418.39125    1533959.3    272.98598 
   70900    326.59346    -67046.62   -55111.349   -65932.334   -483.70109    1533959.3    287.36297 
   71000    307.69139    -66576.76   -55332.261    -64077.83   -390.92942    1533959.3    268.32881 
   71100    333.41687   -67240.663   -55056.033   -65834.813    -481.8145    1533959.3    292.15508 
   71200    328.84482    -67379.66   -55362.114   -66816.855   -512.03017    1533959.3    294.29437 
   71300    327.00122   -67593.661    -55643.49   -68362.475   -568.54225    1533959.3    292.42579 
   71400    327.31088   -67821.498    -55860.01   -69494.487   -609.46495    1533959.3    303.72884 
   71500    326.43749   -68002.352   -56072.782   -70266.277   -634.45326    1533959.3    300.45825 
   71600      327.391   -68224.601   -56260.185   -71149.009   -665.53464    1533959.3    249.08642 
   71700    328.73764   -68459.698    -56446.07   -72159.887   -702.41208    1533959.3    282.10258 
   71800    329.32174    -68679.41   -56644.436   -73152.089   -737.89678    1533959.3    288.35155 
   71900    323.36626   -68716.331   -56898.999   -72962.943   -718.06285    1533959.3     290.8633 
   72000     321.6171   -68780.416   -57027.005   -73780.513   -748.88656    1533959.3    284.16366 
   72100    322.54026   -68790.132   -57002.984   -73599.157   -741.85362    1533959.3    250.32356 
   72200     308.4384   -68118.039   -56846.241   -70671.702   -618.00203    1533959.3    283.69028 
   72300    306.34033   -67651.682   -56456.557   -68466.538   -536.84955    1533959.3    251.71105 
   72400    309.03006   -67259.399   -55965.979   -66475.112    -469.7612    1533959.3    280.23136 
   72500    302.99575   -66539.557   -55466.658   -62866.305   -330.76632    1533959.3    277.78779 
   72600    324.80626   -66834.472   -54964.515   -63141.211   -365.50066    1533959.3    283.71369 
   72700    321.49942   -66423.797   -54674.687   -61822.985   -319.53095    1533959.3    284.51603 
   72800    319.36596   -65994.561   -54323.418   -59707.341   -240.66292    1533959.3    287.05362 
   72900    321.44995   -65726.513   -53979.211   -57527.164    -158.5945    1533959.3    283.48933 
   73000    316.92008   -65282.755   -53700.996   -56631.757   -131.00586    1533959.3    279.32493 
   73100    314.03714   -64763.429   -53287.027   -53822.558   -23.938384    1533959.3    213.07421 
   73200    319.70109   -64458.816   -52775.425   -52082.297    30.983016    1533959.3    299.70639 
   73300    311.68291   -63576.485   -52186.117   -48109.655    182.21898    1533959.3    297.42513 
   73400    309.99207   -62897.822   -51569.245   -44820.047    301.69104    1533959.3    301.97986 
   73500    312.18693   -62323.838    -50915.05   -42037.898    396.81122    1533959.3    278.82636 
   73600    312.41144   -61610.297   -50193.305   -38163.314    537.74398    1533959.3    248.78355 
   73700    313.49282   -60935.769   -49479.259   -34775.513    657.26158    1533959.3    287.58937 
   73800    321.39468   -60629.964   -48884.682   -33973.263    666.54465    1533959.3    285.66435 
   73900    317.22902   -59745.902   -48152.853   -29627.557    828.08596    1533959.3    283.04798 
   74000    313.04979    -58817.47   -47377.149   -24206.269    1035.7449    1533959.3    262.79079 
   74100    320.41639   -58460.352   -46750.821   -23935.858    1019.8353    1533959.3    243.65458 
   74200    337.10958   -58830.758   -46511.179   -24955.816    963.53082    1533959.3     290.7907 
   74300    333.71734   -58763.302   -46567.692   -25048.168    961.92882    1533959.3    291.34799 
   74400    332.94953   -59433.878   -47266.327   -27940.624    863.86442    1533959.3    292.11154 
   74500    333.48143   -60179.593   -47992.604   -31924.017    718.27042    1533959.3    283.50792 
   74600    326.87525   -60534.905   -48589.336   -34663.169    622.50364    1533959.3    283.24103 
   74700     326.3968   -61096.825   -49168.741   -37423.002    525.03785    1533959.3    279.54125 
   74800     327.5537   -61633.618   -49663.256   -40089.212    427.96248    1533959.3      283.692 
   74900    321.05114   -61826.509   -50093.782   -41196.466    397.71252    1533959.3    283.03365 
   75000    321.72864   -62268.277    -50510.79   -42964.773     337.3091    1533959.3    288.39537 
   75100    323.99938   -62747.459   -50906.989   -45502.714     241.5726    1533959.3     293.6799 
   75200    325.73632   -63174.543   -51270.596   -48299.339    132.81605    1533959.3    290.37337 
   75300    325.64118   -63481.031   -51580.562   -49048.434    113.18684    1533959.3    293.53418 
   75400    324.60593   -63746.468   -51883.832   -50423.939    65.257632    1533959.3    281.46574 
   75500     325.5365   -64101.609   -52204.965   -52354.032   -6.6633252    1533959.3    274.36723 
   75600    326.29212   -64441.565   -52517.307   -54133.043   -72.223834    1533959.3    213.06425 
   75700    329.35747   -64591.271    -52554.99   -54627.888   -92.659109    1533959.3    294.88426 
   75800    328.11247   -64694.072    -52703.29   -55441.385   -122.39361    1533959.3    295.45321 
   75900    329.38407   -65082.391   -53045.139   -56872.073   -171.06507    1533959.3     293.8023 
   76000    328.71706   -65390.107    -53377.23   -58717.353   -238.70499    1533959.3    292.61164 
   76100    330.18903   -65765.077   -53698.408   -60188.159   -290.09373    1533959.3    237.53763 
   76200    329.20218   -66076.173   -54045.568   -62354.494   -371.41134    1533959.3    307.85509 
   76300    330.88477   -66471.575    -54379.48   -63100.137   -389.81582    1533959.3    309.45092 
   76400    331.32937   -66829.657   -54721.314   -65159.909   -466.60816    1533959.3    303.27753 
   76500    329.65441    -67131.51   -55084.379   -66481.161   -509.43939    1533959.3    297.12025 
   76600    324.05176   -67273.518   -55431.134   -67387.748   -534.46405    1533959.3    170.64209 
   76700    323.75071   -67469.778   -55638.396   -68496.089   -574.74252    1533959.3    292.46514 
   76800    324.15996   -67633.813   -55787.474   -69445.253    -610.5066    1533959.3    295.32153 
   76900    324.07558   -67797.927   -55954.672    -69894.42   -623.11065    1533959.3    295.84312 
   77000    320.25465   -67830.251   -56126.631   -70523.338   -643.53686    1533959.3    294.12886 
   77100    325.00601   -68087.916   -56210.659   -70628.386   -644.47649    1533959.3    180.45202 
   77200    321.13412   -68186.859   -56451.099   -71537.287   -674.35688    1533959.3    283.71446 
   77300    329.79555   -68575.477   -56523.187   -72758.369   -725.71723    1533959.3    286.05108 
   77400    326.48992   -68666.015   -56734.529   -73793.868   -762.55728    1533959.3    297.25186 
   77500    320.72953   -68693.756   -56972.781   -73805.762     -752.439    1533959.3    291.16233 
   77600    327.26056   -69012.836   -57053.187   -74909.764   -798.19408    1533959.3    221.88105 
   77700    319.96914   -68978.622   -57285.436   -75355.908   -807.75521    1533959.3    268.52706 
   77800    298.82341   -68282.826   -57362.405   -73034.883   -700.56419    1533959.3    274.27842 
   77900    300.38733   -67902.676   -56925.102   -70627.127   -612.48438    1533959.3    280.13646 
   78000    297.21156   -67274.004   -56412.487   -68050.642   -520.22881    1533959.3    254.25356 
   78100    306.22548   -66971.696   -55780.769   -65335.945   -427.11908    1533959.3    259.75925 
   78200    315.29227   -66709.929   -55187.658   -63884.779   -388.76377    1533959.3    296.56249 
   78300     317.5071   -66302.959   -54699.747   -62038.352   -328.03771    1533959.3    301.80212 
   78400    321.46391   -65996.441   -54248.628     -59854.2   -250.57062    1533959.3    285.00825 
   78500    317.35705   -65424.995   -53827.267   -56770.671   -131.57098    1533959.3    273.91248 
   78600    315.79298   -64897.499    -53356.93   -54258.385   -40.295302    1533959.3    237.07254 
   78700    315.90878    -64368.04   -52823.239   -51913.325    40.673405    1533959.3    294.92158 
   78800    307.32029   -63337.848    -52106.91    -47090.94    224.21531    1533959.3    291.79797 
   78900    310.27166   -62714.369   -51375.574   -44627.541    301.63898    1533959.3    281.87906 
   79000    312.25076   -62024.133   -50613.013   -40059.046    471.76527    1533959.3    281.67197 
   79100     313.1722   -61281.828   -49837.034   -37070.409    570.67176    1533959.3    276.44083 
   79200    315.86862   -60647.694    -49104.36   -32931.379    722.93679    1533959.3    300.54221 
   79300    317.75338   -59963.901   -48351.689   -30605.539    793.25795    1533959.3    301.84208 
   79400    316.18297   -59106.095   -47551.273   -26339.277    948.18222    1533959.3    296.93599 
   79500    325.77495   -58923.623   -47018.265   -25736.648    951.29431    1533959.3    297.67209 
   79600    322.78998   -58169.231   -46372.958   -21738.033    1101.1881    1533959.3    244.58081 
   79700    333.70905   -58586.871   -46391.564    -23810.05       1009.4    1533959.3    289.84163 
   79800    336.35581   -59483.658   -47191.625   -28022.665    856.85794    1533959.3    290.72116 
   79900    331.23503   -60091.692   -47986.797   -31144.593     752.8513    1533959.3    291.77158 
   80000    327.93595   -60650.779   -48666.448   -34667.964    625.73622    1533959.3    288.44872 
   80100    323.12042   -61042.402   -49234.053   -36948.104    549.18541    1533959.3    261.38191 
   80200     313.5051   -61098.675   -49641.715   -38363.503    504.13926    1533959.3    305.83368 
   80300    322.75974   -61848.743   -50053.575   -41395.718    387.00865    1533959.3    298.07149 
   80400    306.99014    -61433.04   -50214.168     -39571.9    475.71238    1533959.3    298.49235 
   80500    319.74353   -61659.371   -49974.429    -40379.64    428.88982    1533959.3    295.53024 
   80600    310.45154   -60552.349   -49206.981   -35342.946    619.72627    1533959.3     255.0349 
   80700    311.71659    -59769.51   -48377.911    -31575.63    751.06674    1533959.3    295.27808 
   80800    317.96838   -59294.375   -47674.306   -28260.427    867.80589    1533959.3    289.95424 
   80900    322.91547   -58851.927   -47051.068   -26156.251    934.00425    1533959.3    291.46785 
   81000    324.72788   -58314.294   -46447.201   -23797.382    1012.4533    1533959.3    288.70604 
   81100    335.40717   -58522.068   -46264.703   -24928.091    953.75259    1533959.3    273.52218 
   81200    337.41133   -58953.795   -46623.188   -26309.905     908.0095    1533959.3    298.61986 
   81300    336.11509   -59746.542   -47463.306   -29984.524    781.30649    1533959.3    302.10014 
   81400    330.49474   -60190.699   -48112.857    -33881.72    636.13588    1533959.3    286.64792 
   81500    327.97863   -60693.909   -48708.019   -35991.957    568.41155    1533959.3    293.81527 
   81600    327.35273   -61182.576   -49219.559   -37786.324    511.06883    1533959.3    272.26211 
   81700    321.22063   -61348.919   -49609.997   -39276.021    461.93168    1533959.3    293.69799 
   81800    333.23665   -62313.856   -50135.812   -43515.244    295.94128    1533959.3    292.67228 
   81900    330.17718   -62774.421   -50708.185   -45403.003    237.14314    1533959.3    294.42411 
   82000    323.08461   -62950.455   -51143.415   -46916.279    188.95417    1533959.3    292.53796 
   82100    324.69448   -63356.318   -51490.445   -48970.119     112.6593    1533959.3    230.44765 
   82200    320.99363   -63414.702   -51684.077     -49042.3    118.08817    1533959.3    301.28745 
   82300    310.63917   -63164.309   -51812.084    -48441.27    150.67636    1533959.3    289.99373 
   82400    304.55798   -62352.813   -51222.824   -44131.264    316.99473    1533959.3       266.45 
   82500     317.0043    -62196.94   -50612.104   -43504.114    317.72912    1533959.3    288.87963 
   82600    312.72028   -61320.579     -49892.3   -38119.512    526.24697    1533959.3    284.00858 
   82700    309.14851   -60319.756   -49022.007   -33715.032    684.22609    1533959.3    280.06033 
   82800     316.2911   -59860.358   -48301.584   -30470.195    797.06815    1533959.3    267.77412 
   82900     314.3094   -58939.061   -47452.708   -26431.883    939.63685    1533959.3    289.16861 
   83000    319.48617   -58498.247    -46822.71   -24009.022    1019.7783    1533959.3    279.96855 
   83100    328.97348   -58442.344   -46420.097   -24208.716    992.85499    1533959.3    278.39644 
   83200    340.28552   -59048.177   -46612.534   -25829.267    929.01794    1533959.3    302.50781 
   83300    332.99281   -59467.026   -47297.893    -29100.74    813.41791    1533959.3    301.71463 
   83400    331.15958   -60137.174   -48035.036   -32183.627    708.56249    1533959.3    297.18299 
   83500     329.5621   -60707.721   -48663.962   -35257.417    599.27638    1533959.3    289.17958 
   83600    326.38875   -61146.932   -49219.142   -38126.994    495.82215    1533959.3    239.65644 
   83700    328.49921   -61524.869   -49519.953   -40184.093    417.31557    1533959.3    272.73587 
   83800    311.61598   -61091.983    -49704.06   -39040.439    476.66688    1533959.3    273.96508 
   83900    327.48624   -62063.194   -50095.298   -41918.079    365.52401    1533959.3    280.75451 
   84000    330.58998    -62650.91   -50569.589   -44936.786    251.78786    1533959.3     283.1915 
   84100    324.80835   -62737.125   -50867.091   -46078.173    214.06602    1533959.3     293.1743 
   84200    325.39569   -63107.021   -51215.523   -47433.475    169.05863    1533959.3    302.11929 
   84300    331.18183   -63766.545   -51663.594   -50807.328    38.275324    1533959.3    299.30987 
   84400    326.52882   -64049.541   -52116.633   -52265.429   -6.6511922    1533959.3    301.00442 
   84500    322.02251   -64250.909   -52482.683   -53162.652   -30.394772    1533959.3    303.19203 
   84600    325.72976   -64689.219   -52785.513   -55401.282   -116.92561    1533959.3    263.80283 
   84700    325.05786    -64964.03   -53084.878   -56903.567   -170.69651    1533959.3    287.74997 
   84800    330.26755   -65396.653   -53327.114   -58517.849    -232.0273    1533959.3    279.03801 
   84900    323.80589   -65497.267   -53663.867   -58936.094   -235.67003    1533959.3    293.83688 
   85000    327.81379   -65939.097    -53959.23   -61230.591   -325.03192    1533959.3    267.43606 
   85100    332.08864   -66403.623   -54267.532   -63230.919   -400.66593    1533959.3    264.72474 
   85200    326.68708   -66579.803   -54641.111   -64046.546   -420.42561    1533959.3    282.04928 
   85300    326.01427   -66855.128   -54941.025       -65031   -451.02474    1533959.3     304.2018 
   85400    324.88084   -67081.715   -55209.032   -66461.526    -502.9897    1533959.3    303.26942 
   85500      321.616   -67183.448   -55430.078   -67566.122   -542.48462    1533959.3    302.26909 
   85600    319.99444   -67306.347   -55612.236   -68135.181   -559.77916    1533959.3     287.6953 
   85700    322.63367    -67511.55    -55720.99   -68533.502    -572.7229    1533959.3    299.91748 
   85800    321.77958   -67665.722   -55906.374   -69009.234   -585.70155    1533959.3    299.94451 
   85900    327.30777   -67984.018   -56022.644   -70738.595   -657.80717    1533959.3     301.9616 
   86000    327.28564   -68127.868   -56167.302   -71399.714    -680.8931    1533959.3    297.12741 
   86100    323.63783   -68213.348   -56386.091    -71442.18   -673.01144    1533959.3    231.52433 
   86200     325.3999   -68439.365   -56547.713   -72392.647   -708.27301    1533959.3    305.03319 
   86300    331.77708   -68768.331   -56643.626   -73887.014    -770.7843    1533959.3    302.85423 
   86400    331.23027   -68969.924   -56865.203   -74517.877   -789.07953    1533959.3    301.86945 
   86500    325.63249   -69024.024   -57123.872   -75010.733   -799.54776    1533959.3    283.30378 
   86600    313.38606   -68864.045   -57411.435   -74777.542   -776.26988    1533959.3    170.62196 
   86700    302.32599   -68530.752    -57482.33   -74045.206   -740.36526    1533959.3    298.88308 
   86800    307.65687   -68329.504   -57086.266    -72225.67   -676.73565    1533959.3    295.20035 
   86900    300.20867   -67680.214   -56709.169   -69637.045   -577.87971    1533959.3    295.88507 
   87000    302.64471   -67225.243   -56165.173    -67318.62   -498.56223    1533959.3    272.49294 
   87100    308.57016   -66824.286   -55547.673   -64642.051   -406.52128    1533959.3    184.24216 
   87200    309.29874   -66261.467   -54958.228   -62379.527   -331.73418    1533959.3    267.98867 
   87300     315.6017   -65926.662   -54393.082   -59457.167   -226.36603    1533959.3    268.48597 
   87400    317.75724   -65510.941   -53898.588   -57507.111   -161.30196    1533959.3    271.23056 
   87500    318.62474   -65070.576    -53426.52   -55238.559   -80.998639    1533959.3    286.84866 
   87600      315.113   -64404.619   -52888.899   -53056.814   -7.5058154    1533959.3    296.60653 
   87700    311.70139   -63673.781   -52282.737   -48947.827    149.07143    1533959.3    296.54403 
   87800    319.30874    -63390.43   -51721.379   -47105.207    206.34419    1533959.3    294.07875 
   87900    320.19726   -62902.836   -51201.313   -44675.605    291.70101    1533959.3    289.16682 
   88000    317.92836   -62251.031   -50632.425   -41931.073    388.95289    1533959.3    288.70445 
   88100     315.3371   -61490.703   -49966.794   -37528.717    555.98552    1533959.3    227.74633 
   88200    312.00974   -60615.136   -49212.824   -33767.106    690.42796    1533959.3    295.23006 
   88300    313.04294   -59846.915   -48406.845   -29997.949    822.88289    1533959.3    301.10966 
   88400    317.66595   -59322.692   -47713.675    -27242.19    915.08118    1533959.3    296.09625 
   88500    322.34238   -58854.009   -47074.093   -25227.603    976.54428    1533959.3    291.86416 
   88600    329.38058   -58649.084   -46611.959    -23603.95    1028.4645    1533959.3    199.75549 
   88700    338.41447   -59053.281   -46686.015   -26047.864    922.53119    1533959.3    284.77778 
   88800     331.9932   -59431.388   -47298.785   -27795.497    871.80251    1533959.3    279.32344 
   88900    333.50815   -60320.716    -48132.75   -32070.034    718.00799    1533959.3    285.51287 
   89000    328.01695   -60691.235   -48703.944   -35077.193    609.11962    1533959.3    275.11823 
   89100    323.31164   -60957.258   -49141.921   -35269.903     620.0831    1533959.3    208.50058 
   89200    325.03736   -61488.665   -49610.262   -38493.222    496.93483    1533959.3    292.37625 
   89300    329.27147   -62136.851   -50103.713   -41685.524    376.29543    1533959.3    295.79931 
   89400    327.52603   -62520.027   -50550.676   -43839.393    299.99627    1533959.3    285.66863 
   89500     324.5277   -62857.146   -50997.368   -46029.125    222.08187    1533959.3    289.35773 
   89600    329.51177   -63452.911   -51410.992   -48209.376    143.11312    1533959.3    264.89577 
   89700    327.07686   -63813.158   -51860.222   -50090.124    79.123882    1533959.3    283.40486 
   89800    325.74746   -64155.354   -52251.001   -52173.131    3.4808176    1533959.3    285.02375 
   89900    328.18193   -64637.823   -52644.502   -54567.292   -85.949257    1533959.3    285.16269 
   90000    327.18638   -64974.518   -53017.579   -55813.419   -124.97485    1533959.3    280.87371 
   90100    319.15275    -65064.33   -53400.979    -56918.05   -157.21407    1533959.3    234.12887 
   90200    332.56284   -65844.975   -53691.556   -60209.671    -291.3616    1533959.3    297.56334 
   90300     326.7406   -66033.432   -54092.785   -61136.577   -314.85947    1533959.3    295.01576 
   90400    328.29212   -66411.496   -54414.149   -62889.593   -378.85474    1533959.3    298.39954 
   90500    327.30468   -66650.911    -54689.65    -64918.06   -457.21285    1533959.3    305.69548 
   90600    322.32177   -66704.928   -54925.766   -64483.873    -427.2501    1533959.3    288.40132 
   90700    319.38539   -66815.076   -55143.223   -65814.366   -477.00309    1533959.3    289.87708 
   90800    322.91175   -67101.186   -55300.463   -67104.088   -527.62536    1533959.3    290.11147 
   90900     318.9696   -67189.392   -55532.734   -66793.798   -503.37274    1533959.3    293.76073 
   91000    326.87514   -67551.997   -55606.433   -68245.691    -564.9784    1533959.3    299.08065 
   91100    312.21645   -67267.431   -55857.565    -67855.52   -536.31198    1533959.3    251.48195 
   91200    301.09418   -66593.251   -55589.845   -64578.402   -401.79101    1533959.3     278.2701 
   91300    301.07349   -66063.885   -55061.235   -62140.966   -316.46598    1533959.3    283.87883 
   91400    307.55556    -65692.79   -54453.255   -59998.886    -247.8913    1533959.3    274.61064 
   91500    314.36216   -65365.661   -53877.381   -57529.896   -163.26845    1533959.3    282.60229 
   91600    309.22288   -64583.559   -53283.092   -54202.334   -41.090404    1533959.3    261.42492 
   91700    309.20232   -63915.572   -52615.856   -50535.416     92.99628    1533959.3     261.4127 
   91800    314.56915   -63453.466   -51957.621   -47641.023    192.95315    1533959.3    288.70028 
   91900    318.02206   -62948.122   -51326.091   -45771.083    248.31041    1533959.3     291.6677 
   92000    317.97399   -62348.792   -50728.518   -42318.758    375.91862    1533959.3     257.1183 
   92100     314.1246   -61513.079    -50033.48   -38760.586    503.90154    1533959.3    254.91276 
   92200    313.50281   -60752.996    -49296.12    -35321.33    624.67708    1533959.3    258.09053 
   92300      316.147   -60088.826   -48535.318   -31623.845    755.94763    1533959.3    276.34157 
   92400    315.88453   -59306.708   -47762.792   -27885.413    888.52447    1533959.3    269.90703 
   92500    316.15128   -58626.613   -47072.949   -24460.332    1010.7904    1533959.3    275.79662 
   92600    321.46911   -58361.995   -46613.993   -22411.761    1081.8466    1533959.3    278.14388 
   92700    320.84712   -58258.351    -46533.08   -22378.891    1079.6991    1533959.3    273.58284 
   92800    338.48678   -59685.298    -47315.39   -28694.613    832.35399    1533959.3    270.38587 
   92900    337.03306   -60482.782   -48165.999   -33022.902    676.90076    1533959.3    273.00997 
   93000    326.56988   -60755.759   -48821.351    -34673.78    632.40043    1533959.3     268.7745 
   93100    329.11108   -61481.322   -49454.046   -38358.845    495.95861    1533959.3    295.52399 
   93200    329.70712   -62021.287   -49972.229   -41256.867    389.57918    1533959.3    289.39706 
   93300    323.80691   -62302.397    -50468.96   -43055.418    331.38745    1533959.3    288.35889 
   93400    327.76971   -62955.439   -50977.183   -46115.896    217.30093    1533959.3    285.26199 
   93500    317.59601   -63058.364   -51451.903   -47482.577    177.43001    1533959.3    297.19984 
   93600    329.60646   -63904.884   -51859.505   -50764.358    48.953367    1533959.3    260.69843 
   93700    326.03503   -64160.919   -52246.057   -51716.238    23.683032    1533959.3    282.64704 
   93800    320.81274   -64294.926   -52570.911   -53014.807   -19.842249    1533959.3    280.95029 
   93900    321.14545   -64614.607   -52878.433   -54384.325   -67.313816    1533959.3     281.5434 
   94000    322.26163   -64875.909   -53098.944   -55087.421   -88.885481    1533959.3    277.86269 
   94100    329.26293   -65219.506    -53186.68   -56185.489    -134.0476    1533959.3    242.34264 
   94200    331.16332   -65431.677   -53329.402   -57407.146   -182.27628    1533959.3    287.89139 
   94300      326.963   -65659.399   -53710.623     -58862.8   -230.30374    1533959.3    287.61678 
   94400    325.90471   -65928.541   -54018.441   -60176.139   -275.25081    1533959.3     300.0533 
   94500    325.78234   -66235.802   -54330.174    -61998.26   -342.76563    1533959.3    297.04092 
   94600    331.23401    -66651.41   -54546.552   -63671.725   -407.89782    1533959.3     285.4843 
   94700    328.73296   -66940.334   -54926.876   -65545.987   -474.67726    1533959.3    282.92216 
   94800    324.99332   -67169.677   -55292.884   -66211.109   -488.04778    1533959.3    284.77063 
   94900    324.74447   -67383.178   -55515.478    -67580.14   -539.29379    1533959.3    294.68785 
   95000    327.41673   -67616.167   -55650.811    -68474.73    -573.2328    1533959.3    297.68456 
   95100    322.88908   -67700.335    -55900.44   -69337.865   -600.65669    1533959.3    272.25716 
   95200    321.89169   -67829.466   -56066.021   -70128.274   -628.58671    1533959.3    303.20014 
   95300    326.87729   -68129.748   -56184.105   -70883.996   -657.08929    1533959.3    302.62589 
   95400     327.3776   -68354.693   -56390.767   -71635.936   -681.46336    1533959.3     294.0606 
   95500    323.96671   -68456.426    -56617.15   -72642.222   -716.32526    1533959.3    284.95384 
   95600    330.06343   -68834.364   -56772.285   -73783.567    -760.4091    1533959.3    286.94973 
   95700    325.67106   -68959.827   -57058.265   -74670.587   -787.27575    1533959.3    294.44684 
   95800    323.63992    -69078.42   -57251.086    -75184.12   -801.61168    1533959.3    291.88305 
   95900    326.07725   -69264.352   -57347.946   -76001.828    -833.8338    1533959.3    299.54201 
   96000    318.99605   -69177.975    -57520.35    -75488.87   -803.19792    1533959.3    292.66983 
   96100    313.71751   -69028.658   -57563.936   -75418.449   -798.10178    1533959.3    273.46226 
   96200    308.63471   -68577.791   -57298.818   -73216.969   -711.54586    1533959.3    307.87905 
   96300    306.88224   -68135.558    -56920.63   -71346.637    -644.8466    1533959.3    295.12973 
   96400    308.46185   -67732.188   -56459.533   -68926.301   -557.26809    1533959.3    292.76482 
   96500    309.17127   -67239.565   -55940.984   -66003.139   -449.78119    1533959.3    284.84276 
   96600     310.3025    -66731.96   -55392.038   -63653.182   -369.27545    1533959.3    213.84977 
   96700    317.19018   -66449.349    -54857.72   -62526.546   -342.79872    1533959.3    289.12835 
   96800    314.78735   -65908.433   -54404.614   -59413.529   -223.89994    1533959.3    286.02162 
   96900    315.54393   -65412.373   -53880.905   -56771.921   -129.22924    1533959.3    286.36727 
   97000    317.03799   -64921.596   -53335.527   -54004.194   -29.889597    1533959.3    290.02561 
   97100    308.87954   -63935.227   -52647.307   -49748.956    129.55711    1533959.3    256.06955 
   97200    313.56349   -63417.541   -51958.448   -46762.993    232.23831    1533959.3    288.33649 
   97300    312.52588   -62743.253   -51322.079   -43597.517    345.29008    1533959.3    302.41075 
   97400    317.42017   -62339.275    -50739.24   -41915.484    394.42441    1533959.3    295.13596 
   97500    318.30527   -61715.153   -50082.773   -38860.845    501.62336    1533959.3    292.95008 
   97600    315.80204   -60867.259   -49326.359   -34499.195    662.77839    1533959.3    204.85051 
   97700    315.00795    -60032.49   -48520.609   -30893.474    787.93791    1533959.3    293.73234 
   97800    319.45923   -59538.682   -47864.131   -28185.753    879.62905    1533959.3    280.69138 
   97900    318.04337    -58813.38    -47190.57   -24810.632    1000.3896    1533959.3     286.3444 
   98000    334.60874   -59133.578   -46905.392    -26001.86    934.39379    1533959.3    276.43846 
   98100    334.91421   -59092.037   -46852.687    -25279.19    964.34143    1533959.3    267.95648 
   98200    337.36435   -59605.711   -47276.822   -28269.435    849.63556    1533959.3    251.16796 
   98300     331.7155   -60098.553   -47976.099   -30838.616    766.05034    1533959.3    265.83714 
   98400    325.94537   -60553.305   -48641.719   -34171.066    646.84226    1533959.3    265.87624 
   98500    326.34241   -61176.137   -49250.042   -36577.075     566.4852    1533959.3    276.21854 
   98600    313.25375   -61082.823   -49635.049   -36751.444    575.90079    1533959.3    234.88909 
   98700    323.15159   -61788.871   -49979.383    -39827.98    453.77057    1533959.3    273.29495 
   98800    328.47917   -62299.735   -50295.552   -42686.782    340.11416    1533959.3    265.34841 
   98900    326.12015   -62511.039   -50593.066   -43249.439    328.26218    1533959.3    257.09781 
   99000    329.82085   -63159.151   -51105.937   -46837.337    190.80761    1533959.3    263.25147 
   99100    325.98455   -63496.136   -51583.118   -48036.633     158.5289    1533959.3    267.62223 
   99200    328.82986   -64009.746   -51992.747   -50575.092     63.36956    1533959.3    293.36275 
   99300    328.24765   -64380.136   -52384.414   -52196.495    8.4000494    1533959.3    288.23167 
   99400    325.73208   -64633.481   -52729.689   -53769.172   -46.465169    1533959.3    282.19103 
   99500    321.99469   -64828.393   -53061.184   -55198.548   -95.540791    1533959.3    283.87479 
   99600    329.20888   -65389.963   -53359.114   -57082.618   -166.44172    1533959.3     222.4105 
   99700    326.18896   -65604.261   -53683.773   -58506.834   -215.59219    1533959.3    294.32721 
   99800    326.31405   -65897.696   -53972.637   -59842.328   -262.37684    1533959.3     297.1211 
   99900    325.86874   -66166.134   -54257.348   -61299.348   -314.77938    1533959.3    298.16472 
  100000    327.64319     -66451.4   -54477.768   -62286.853   -349.06831    1533959.3    247.45317 
  100100    328.82415   -66688.093   -54671.302     -63747.9   -405.72647    1533959.3    263.87651 
  100200    331.81962   -67009.927   -54883.669   -64727.206   -440.00891    1533959.3    303.13418 
  100300    329.83054   -67217.063   -55163.495   -66071.734    -487.6014    1533959.3    304.62733 
  100400    327.32105   -67406.739    -55444.88   -67436.747   -536.03986    1533959.3    307.71506 
  100500    330.77145   -67784.928   -55696.974   -68798.305   -585.63318    1533959.3    305.45994 
  100600    327.34048   -67945.995   -55983.425    -69515.93   -604.90677    1533959.3    202.62974 
  100700    321.86639   -68041.411   -56278.891    -69998.62   -613.27576    1533959.3    296.27256 
  100800      329.911   -68477.698   -56421.189   -71696.111    -682.7933    1533959.3    294.00103 
  100900    327.40396   -68637.553   -56672.663   -73172.323   -737.53948    1533959.3    297.76783 
  101000      328.807    -68877.67   -56861.507   -74289.459   -779.03439    1533959.3    296.99234 
  101100    327.93174   -69074.235   -57090.058   -75155.027   -807.50923    1533959.3    195.71931 
  101200    313.53269    -68863.17   -57405.202   -74340.837   -757.02764    1533959.3    261.75333 
  101300    306.59157   -68685.825   -57481.518   -74427.767    -757.5021    1533959.3    268.07054 
  101400    310.85133   -68457.123   -57097.144   -72648.978   -695.17135    1533959.3    279.89494 
  101500    306.40461   -67924.076   -56726.601   -70022.345    -594.3235    1533959.3    254.61364 
  101600    308.29076   -67529.661   -56263.258   -68234.322   -535.10996    1533959.3    279.59119 
  101700    315.04979   -67271.013   -55757.603   -66267.695   -469.80408    1533959.3    296.41222 
  101800    314.16898   -66788.819   -55307.598   -63505.682   -366.45668    1533959.3    305.87583 
  101900    309.49953   -66131.746   -54821.168   -60477.095    -252.8215    1533959.3    303.75194 
  102000    311.97696   -65637.104    -54235.99   -58234.662    -178.7418    1533959.3    294.95394 
  102100    314.21178   -65112.171   -53629.386   -55774.654   -95.894096    1533959.3    210.90682 
  102200     314.3405   -64487.098   -52999.609   -52193.043    36.053724    1533959.3     271.9255 
  102300    311.37561   -63714.651   -52335.513   -48907.583    153.22945    1533959.3    279.59193 
  102400    313.11753   -63112.683   -51669.887   -45117.302    292.90243    1533959.3    298.69024 
  102500    322.89332   -62862.682   -51062.633   -44212.935    306.18341    1533959.3    301.02992 
  102600      314.114   -61818.584   -50339.373    -39292.32    493.80639    1533959.3    283.13836 
  102700    310.19658   -60826.863   -49490.812   -34586.756    666.21554    1533959.3    298.57968 
  102800    312.92072   -60094.159   -48658.556   -31810.023    753.13416    1533959.3    295.79409 
  102900    315.38204   -59347.579   -47822.027   -27140.782    924.45752    1533959.3    290.85765 
  103000    317.73328    -58689.44   -47077.963   -23468.195    1055.3633    1533959.3    283.50293 
  103100    322.01047   -58333.706    -46565.92   -22628.874    1069.9927    1533959.3    241.98652 
  103200    335.34423   -58734.087   -46479.022   -24760.734    970.81363    1533959.3    276.75621 
  103300    338.26884   -59501.991   -47140.047   -27504.664    877.70718    1533959.3     279.9764 
  103400    335.27878   -60225.352   -47972.678   -31523.048    735.30314    1533959.3    288.75692 
  103500    326.30604   -60510.586    -48585.82    -34582.25    625.96354    1533959.3    291.03606 
  103600    323.27674   -60922.933   -49108.872   -36102.388     581.3935    1533959.3    219.44931 
  103700    325.14732   -61446.115   -49563.694   -38280.878    504.34507    1533959.3    290.97266 
  103800    307.42614   -60899.504   -49664.699   -36881.792    571.39953    1533959.3    282.89735 
  103900    308.83948   -60782.049   -49495.594   -35502.679    625.48724    1533959.3    269.55058 
  104000    308.53617   -60203.065   -48927.694   -32861.596    718.15911    1533959.3    273.67263 
  104100    314.47405   -59639.315   -48146.945   -30235.744    800.63577    1533959.3    229.48197 
  104200      319.942   -59081.727   -47389.533   -27431.568    892.12668    1533959.3    256.48859 
  104300    321.16157   -58387.718   -46650.955   -23040.424    1055.3974    1533959.3    266.84956 
  104400    334.91484   -58689.671   -46450.298    -23879.07    1008.9403    1533959.3     274.5639 
  104500    330.15263   -58915.918   -46850.579   -25931.362    935.09493    1533959.3    293.46599 
  104600    330.00255   -59614.016   -47554.161   -30150.954    777.92828    1533959.3    287.64558 
  104700    326.38755   -60121.232   -48193.487   -32339.232    708.68969    1533959.3    290.97428 
  104800     326.4951   -60697.827   -48766.151   -35769.324    580.96185    1533959.3    291.89747 
  104900     325.3997   -61112.906   -49221.262   -37796.839    510.67495    1533959.3    293.94561 
  105000    332.25247   -61978.242   -49836.165   -41530.633    371.25961    1533959.3     290.0206 
  105100    329.50147   -62461.311   -50419.768   -44103.998    282.31673    1533959.3    258.02257 
  105200    324.36643   -62741.918   -50888.034   -45584.662    237.06221    1533959.3       290.02 
  105300    329.33364   -63322.418   -51287.009   -48778.957    112.11064    1533959.3    288.05233 
  105400    324.45886   -63529.642    -51672.38   -50003.194    74.613112    1533959.3    286.40657 
  105500    325.02991   -63868.557   -51990.427   -51052.369    41.931434    1533959.3     284.0055 
  105600    325.80737   -64163.681   -52257.139   -52721.225   -20.744769    1533959.3    277.22174 
  105700    311.23955   -63884.522   -52510.356   -52330.608     8.034782    1533959.3    294.96784 
  105800    331.59674   -64482.685   -52364.571   -53961.551   -71.385455    1533959.3    290.33297 
  105900    312.54648   -63968.443   -52546.516   -51582.575    43.088453    1533959.3    289.22983 
  106000    333.80768   -64851.152    -52652.24   -54930.037   -101.81818    1533959.3    258.17441 
  106100    326.38513   -64957.685   -53030.028   -56606.113   -159.85198    1533959.3    281.38096 
  106200    323.11574   -65176.969   -53368.791   -57802.366   -198.18207    1533959.3    283.69124 
  106300     324.6658   -65443.331   -53578.507   -58742.625   -230.83757    1533959.3    286.71689 
  106400    327.08199   -65744.731   -53791.607   -59901.489   -273.11343    1533959.3    290.29178 
  106500    325.29636   -65924.953   -54037.085   -60932.448   -308.22467    1533959.3    293.05488 
  106600    321.99062   -66061.782   -54294.721   -61299.985   -313.13728    1533959.3    289.81139 
  106700    327.36533   -66438.386   -54474.908   -63473.831   -402.25441    1533959.3    292.07228 
  106800    329.07364   -66701.319   -54675.411   -64334.858      -431.78    1533959.3    282.81819 
  106900    305.65871   -65851.625    -54681.41   -61113.657   -287.52329    1533959.3    289.17878 
  107000    298.75845   -65094.759   -54176.712   -57698.844    -157.4403    1533959.3     278.8918 
  107100     308.9584   -64861.989   -53571.188   -56300.399   -121.99651    1533959.3    267.80062 
  107200     308.9617   -64219.342    -52928.42   -52494.962      19.3757    1533959.3    280.73103 
  107300    305.57521    -63320.17   -52153.006   -48515.308    162.60612    1533959.3    289.41883 
  107400    308.37085   -62634.102   -51364.772   -45012.761    283.93667    1533959.3    299.84008 
  107500    312.23452   -62004.988   -50594.462   -41683.914    398.30402    1533959.3    275.03362 
  107600    316.51523   -61477.959   -49910.995   -38859.883    493.98786    1533959.3    272.57901 
  107700    314.93655   -60728.379   -49219.108   -34389.318    662.89579    1533959.3    281.60691 
  107800    311.35018    -59727.89   -48349.681   -30459.428    799.69938    1533959.3    277.46877 
  107900    315.52965   -59121.466    -47590.52   -27073.538    917.11493    1533959.3    276.99912 
  108000    325.35105   -58936.737    -47046.87   -26365.195    924.47676    1533959.3    269.57292 
  108100    326.48283   -58435.898    -46504.67   -23417.735    1031.9925    1533959.3    255.05072 
  108200    328.18881   -58271.317   -46277.745   -22637.649     1056.719    1533959.3    291.67784 
  108300    337.71926   -59277.597   -46935.737   -27904.741     850.6909    1533959.3    278.64538 
  108400     327.5923   -59631.083   -47659.311   -30043.684     787.4235    1533959.3    283.14887 
  108500    328.46997   -60410.995   -48407.148   -33824.229    651.86063    1533959.3     284.4701 
  108600    326.45425   -60899.367   -48969.184    -36793.41    544.26055    1533959.3    289.26215 
  108700     328.4725   -61506.617   -49502.678   -38770.397      479.736    1533959.3    296.12969 
  108800    326.04282   -61900.081   -49984.934   -41676.023    371.41065    1533959.3     292.4421 
  108900    326.99356   -62471.476   -50521.584   -44918.736    250.44893    1533959.3    292.79486 
  109000    327.65735   -62977.543   -51003.394   -46868.758    184.81936    1533959.3    288.44793 
  109100    325.53379   -63318.449   -51421.904   -47909.834    156.99051    1533959.3     246.1472 
  109200    306.11397   -62381.829   -51194.976   -44777.608    286.85819    1533959.3    293.23026 
  109300    309.52638   -61772.245   -50460.686   -41759.347    388.95233    1533959.3    247.15279 
  109400    309.23825   -60968.833   -49667.805   -37279.839    553.74556    1533959.3    222.69876 
  109500    307.86267    -60030.16   -48779.401   -32066.947    747.05142    1533959.3    253.51498 
  109600    322.63688   -60074.446   -48283.768   -32317.662    713.68948    1533959.3    260.25681 
  109700    325.06055   -59796.759   -47917.509   -29914.303    804.74841    1533959.3    266.10396 
  109800    318.44063   -59135.569   -47498.242   -27403.756    898.22921    1533959.3      258.579 
  109900    316.15522   -58353.564   -46799.756   -24940.675    977.10711    1533959.3    271.53398 
  110000    336.15184   -58940.145   -46655.566   -26310.207    909.44333    1533959.3    275.37436 
  110100    326.85149   -58536.644   -46591.944   -25292.883    952.07404    1533959.3    280.85152 
  110200       338.44   -59617.497   -47249.298   -30011.813    770.52047    1533959.3    293.21734 
  110300    341.67776   -60586.879   -48100.357   -34152.918     623.4545    1533959.3    289.66268 
  110400    328.90355    -60807.24   -48787.549    -36843.46    533.90416    1533959.3    292.55163 
  110500    327.43832   -61366.499   -49400.354   -39266.372    452.99189    1533959.3    294.89484 
  110600    319.54418   -61537.861   -49860.205   -40665.047    411.02616    1533959.3    257.16071 
  110700     324.2191   -62112.303   -50263.803   -43367.293    308.27598    1533959.3    285.21058 
  110800    328.72643   -62615.589    -50602.37   -45518.739    227.23977    1533959.3    278.65704 
  110900    325.37663   -62894.961   -51004.159   -46969.974    180.32921    1533959.3    283.93283 
  111000    327.31488   -63399.113   -51437.479    -49042.62    107.05086    1533959.3    274.32596 
  111100    326.10152   -63750.561   -51833.269   -51174.563    29.444343    1533959.3    272.15099 
  111200    323.92263   -63814.718   -51977.052   -51480.681    22.187908    1533959.3    294.98443 
  111300       330.98   -64378.694   -52283.119   -53765.196   -66.249263    1533959.3    292.72968 
  111400    329.29569   -64747.873    -52713.85   -55307.056   -115.91704    1533959.3    301.57817 
  111500    323.03166   -64851.626   -53046.521   -56564.632   -157.26059    1533959.3    300.74111 
  111600    321.56871   -65056.036   -53304.394   -57106.721   -169.96511    1533959.3    268.12229 
  111700    326.44965   -65409.953   -53479.938   -58544.614   -226.39245    1533959.3    305.73381 
  111800    319.47133   -65390.522   -53715.528   -59302.747   -249.75025    1533959.3    300.43371 
  111900    327.81047   -65882.728   -53902.983       -61024   -318.31148    1533959.3     297.1752 
  112000    324.70232   -66055.033   -54188.874    -61615.35   -331.96557    1533959.3    286.45567 
  112100    332.64562   -66530.686   -54374.242    -64114.84    -435.4075    1533959.3    246.56901 
  112200    326.41876   -66679.871   -54750.985   -64479.705   -434.87655    1533959.3    290.63615 
  112300    331.09175   -67178.592   -55078.933   -66587.175   -514.42165    1533959.3    292.84025 
  112400    326.80767    -67359.51   -55416.412   -67672.738   -547.86123    1533959.3    285.82612 
  112500    330.16038    -67673.73   -55608.108   -69524.692   -622.07524    1533959.3    281.86561 
  112600    324.35458   -67807.225   -55953.774     -70453.7   -648.15078    1533959.3     301.0861 
  112700    329.50371   -68232.374   -56190.749   -71710.219    -693.7247    1533959.3    300.07133 
  112800    318.77301   -68187.908   -56538.434   -72333.193   -706.03019    1533959.3    298.52188 
  112900    328.67065   -68543.435   -56532.255   -73113.985   -741.20804    1533959.3     295.2839 
  113000    326.44762   -68635.008   -56705.067   -73658.196   -757.80966    1533959.3     285.2261 
  113100    320.42749   -68690.029   -56980.092   -74593.938   -787.34392    1533959.3    258.12912 
  113200    321.22176   -68816.386   -57077.423    -74629.17   -784.56805    1533959.3     242.2816 
  113300    302.02233   -68257.185    -57219.86   -73157.076   -712.39804    1533959.3    305.89457 
  113400    310.25795   -68135.482   -56797.188   -72180.904   -687.65645    1533959.3    292.25911 
  113500    309.63155   -67708.204   -56392.803   -69898.604   -603.71316    1533959.3    294.74542 
  113600    311.39864   -67355.597   -55975.617   -67831.744   -529.97222    1533959.3    296.15144 
  113700    314.89867   -67050.455   -55542.568   -66070.575    -470.6049    1533959.3    296.82126 
  113800    316.27889   -66657.402   -55099.074   -64157.518   -404.91497    1533959.3    280.85566 
  113900    315.75338   -66239.101   -54699.979   -61872.989   -320.63558    1533959.3    279.98331 
  114000    309.99848   -65591.292    -54262.48   -58827.946   -204.07761    1533959.3    275.11607 
  114100     307.5358   -64941.162   -53702.349   -56008.078   -103.06675    1533959.3    287.65386 
  114200    311.61038   -64441.958    -53054.24   -52323.975    32.643064    1533959.3     277.9964 
  114300    316.98666   -64047.999   -52463.806   -50379.251    93.180231    1533959.3    302.89251 
  114400    314.04913   -63387.036   -51910.195   -47335.055    204.51007    1533959.3    299.14677 
  114500    315.07422   -62804.647   -51290.344   -44269.336    313.84104    1533959.3    297.59965 
  114600    312.54042   -62019.959   -50598.253   -40243.005     462.8825    1533959.3    198.35876 
  114700       314.71   -61365.367   -49864.375   -37395.207     557.3753    1533959.3    284.23395 
  114800    314.43244   -60564.884   -49074.035   -33509.634    695.73312    1533959.3      286.078 
  114900    321.92454   -60233.603   -48468.957    -31718.73    748.73989    1533959.3    287.22247 
  115000    326.94974   -59945.574   -47997.283   -30011.438    803.97238    1533959.3    284.21527 
  115100    319.12895   -59016.473   -47353.991   -26150.587    947.79817    1533959.3    270.68286 
  115200    326.47826   -58973.025   -47041.965   -25487.646    963.48414    1533959.3    277.93616 
  115300    328.17949   -58682.567   -46689.336   -24417.191     995.5712    1533959.3    294.96182 
  115400    328.71292   -58541.831   -46529.105   -23456.177    1031.3664    1533959.3    294.31668 
  115500    335.93848   -59708.824   -47432.042   -28357.466    852.63893    1533959.3    290.83284 
  115600     326.8163   -59823.932   -47880.518   -31027.549    753.33248    1533959.3    280.01565 
  115700    316.56779   -59727.006   -48158.121   -29966.701    813.16164    1533959.3    289.13851 
  115800    330.75314   -60732.169   -48644.884   -34303.152    641.07949    1533959.3    289.43561 
  115900    328.61694   -61184.289   -49175.072   -36841.157    551.32946    1533959.3    289.24798 
  116000    326.39572   -61628.226   -49700.182   -39388.587    460.93121    1533959.3    287.30353 
  116100    328.00059   -62190.127   -50203.434   -42642.705    337.96671    1533959.3    249.29769 
  116200    327.80213   -62595.309   -50615.869   -44203.943    286.61489    1533959.3    277.47024 
  116300     329.9729    -63151.35   -51092.579   -46795.991    192.05869    1533959.3    283.92476 
  116400    328.66061   -63556.952   -51546.138   -49257.744    102.29185    1533959.3    285.27654 
  116500    323.76798    -63752.94   -51920.926   -50974.872    42.288895    1533959.3    281.85519 
  116600    313.78899   -63663.174    -52195.84   -50144.012    91.717276    1533959.3    283.98935 
  116700    306.81506    -63081.49   -51869.016   -48708.385     141.2811    1533959.3    284.78107 
  116800    305.50733   -62334.215   -51169.532   -43456.859    344.75865    1533959.3    284.47801 
  116900    310.34836   -61857.108    -50515.51   -40613.774     442.6104    1533959.3    291.49317 
  117000    309.19325   -61053.448   -49754.064   -36961.444    571.83372    1533959.3    290.71472 
  117100    316.68378   -60657.266   -49084.142   -34662.216    644.66417    1533959.3    254.58181 
  117200    306.73001   -59360.266     -48150.9   -29005.305    855.81351    1533959.3    281.97608 
  117300    310.38087   -58623.942   -47281.157   -24865.588    1001.9823    1533959.3    289.58988 
  117400    320.09205   -58332.574   -46634.896     -23874.9    1017.3783    1533959.3    286.40247 
  117500    321.98967   -57867.996    -46100.97   -21576.368    1096.2566    1533959.3    284.23222 
  117600    340.00829   -58843.114   -46417.603    -25350.34    941.71263    1533959.3    287.23742 
  117700    330.81436   -59219.231   -47129.709   -27759.434    865.85681    1533959.3    287.47445 
  117800    327.12549   -59755.125   -47800.412   -31171.279    743.32696    1533959.3    280.85302 
  117900     326.1675   -60240.006   -48320.302   -33605.566    657.75283    1533959.3     283.6849 
  118000    324.88154   -60652.738   -48780.029    -34809.28    624.49644    1533959.3     281.9522 
  118100    326.44218   -61245.379   -49315.638   -37834.783    513.19745    1533959.3    273.34125 
  118200    327.53129   -61810.203    -49840.66   -41424.223    376.21708    1533959.3    269.32107 
  118300    322.47794    -62045.47   -50260.601   -42190.977    360.71444    1533959.3    301.04526 
  118400    325.04766   -62556.495   -50677.716   -44695.024    267.42801    1533959.3    298.77769 
  118500    319.91845   -62750.741   -51059.407   -45805.266     234.8616    1533959.3    294.99833 
  118600    327.40487   -63384.703    -51419.78    -49305.82    94.494585    1533959.3    200.25591 
  118700    330.69752   -63822.915   -51737.663   -50573.051    52.058449    1533959.3    292.99572 
  118800    327.11827   -64182.916   -52228.467   -52696.292   -20.911912    1533959.3    293.81856 
  118900    323.93171    -64475.62   -52637.622   -53836.729   -53.600438    1533959.3    293.42391 
  119000    327.56124   -64935.712   -52965.075   -56506.515   -158.30339    1533959.3    287.86076 
  119100    324.79145   -65126.394   -53256.978    -57505.18   -189.89585    1533959.3    251.94193 
  119200     322.9241   -65317.748   -53516.573   -58629.362   -228.54309    1533959.3    250.20575 
  119300    303.77991   -64745.567   -53644.012   -56602.193   -132.23152    1533959.3    252.72494 
  119400    304.92349   -64223.981   -53080.634   -54034.088   -42.619659    1533959.3    290.91938 
  119500    308.86494   -63745.213   -52457.827   -50622.518    82.038832    1533959.3    299.10197 
  119600    311.13114   -63207.661   -51837.457   -47380.168     199.2421    1533959.3    272.68179 
  119700    311.02001    -62537.63   -51171.487   -44492.852     298.5369    1533959.3    271.84478 
  119800    305.87594   -61507.516   -50329.362   -39670.975     476.4329    1533959.3    289.29227 
  119900    314.29543     -61076.8   -49590.958   -37232.799     552.4132    1533959.3    279.39284 
  120000     310.1961   -60016.047   -48680.014   -32679.919    715.20878    1533959.3    285.10008 
  120100    312.11886   -59199.561   -47793.262   -27909.341    888.81689    1533959.3    275.99843 
  120200    316.81484    -58554.84   -46976.927   -25022.475    981.37021    1533959.3    273.09351 
  120300     320.6197   -58054.848   -46337.887   -22603.901    1060.9159    1533959.3     288.8653 
  120400     323.5274   -57787.654   -45964.432   -21194.407    1107.2271    1533959.3    288.59698 
  120500    339.50938   -58994.543   -46587.264   -26464.363    899.49938    1533959.3    279.01165 
  120600    336.14865   -59525.733   -47241.271   -29166.033    807.96825    1533959.3    241.24981 
  120700    327.61624   -59915.579   -47942.932   -30609.627    774.80363    1533959.3    284.51931 
  120800     325.7201   -60454.454   -48551.101   -34386.982    633.14009    1533959.3    283.75803 
  120900    332.50013   -61349.187    -49198.06   -38831.838    463.37302    1533959.3    285.58947 
  121000    326.26677   -61620.213   -49696.881   -40483.966    411.81993    1533959.3    274.29492 
  121100    312.77192   -61457.695    -50027.53   -39365.343    476.60278    1533959.3    268.36933 
  121200    330.92385   -62456.246   -50362.723   -44326.855      269.805    1533959.3    299.33657 
  121300     326.6825   -62630.528   -50692.004   -45093.113    250.27203    1533959.3    302.82931 
  121400    315.37398   -62568.607   -51043.349    -45619.18    242.46191    1533959.3    301.33919 
  121500    320.83271   -63098.111   -51373.366   -48126.244    145.14727    1533959.3    290.72983 
  121600     329.0384   -63718.638   -51694.019    -49737.55    87.454724    1533959.3    267.94056 
  121700    325.17986   -63912.771    -52029.16   -51605.652    18.930926    1533959.3    285.10337 
  121800    327.38362   -64334.881   -52370.735   -53195.823   -36.881701    1533959.3    269.30222 
  121900    325.34093   -64623.843   -52734.346   -54488.065   -78.391749    1533959.3     285.7494 
  122000    318.20323   -64652.777   -53024.126   -54857.164   -81.937346    1533959.3    292.30799 
  122100    307.56929   -64079.862   -52839.825   -52789.348    2.2563234    1533959.3    260.03673 
  122200    303.91591   -63296.643   -52190.118   -49057.512    140.02837    1533959.3    297.24491 
  122300    303.60683   -62565.747   -51470.517   -45435.966    269.74614    1533959.3    298.52081 
  122400    309.50613   -62045.459    -50734.64   -42501.421    368.02725    1533959.3    296.78345 
  122500     306.5538   -61048.294   -49845.368   -36635.999    590.46253    1533959.3    296.44909 
  122600    314.35902   -60591.071   -49102.905   -34387.815    657.76867    1533959.3    286.55842 
  122700    318.88607   -60012.005   -48358.399     -30903.1    780.25681    1533959.3    295.67169 
  122800    315.31482   -59030.168   -47507.072   -27206.631    907.43549    1533959.3    293.39189 
  122900    318.23685   -58460.123   -46830.243   -23826.584    1028.2701    1533959.3    290.65629 
  123000    322.77927    -58181.16   -46385.278   -22835.739    1052.6711    1533959.3     287.0157 
  123100    333.38585   -58487.303   -46303.807   -23690.742    1010.8104    1533959.3    232.60092 
  123200    334.63497   -59074.833   -46845.688   -26482.916    910.22169    1533959.3    276.66493 
  123300    329.60284   -59648.895   -47603.648   -30075.632    783.50725    1533959.3    286.11157 
  123400    330.59367   -60391.407    -48309.95   -33877.359     645.1409    1533959.3    271.66149 
  123500    330.06489   -60955.183    -48893.05    -36320.65    561.98985    1533959.3    271.51781 
  123600    322.68473   -61086.052   -49293.625   -37282.277    536.91069    1533959.3    287.30195 
  123700    325.77359   -61598.843   -49693.535    -39742.93    444.79485    1533959.3    294.11422 
  123800    323.33412   -61846.202   -50030.043   -41512.608    380.73176    1533959.3     290.9216 
  123900    321.22435       -61965   -50225.943    -41749.03    378.92041    1533959.3     290.1773 
  124000    315.75648   -62005.632   -50466.397     -42277.9    366.02813    1533959.3      291.689 
  124100    302.90852   -61172.863   -50103.152   -39352.893    480.53965    1533959.3    190.52184 
  124200    305.96231   -60453.674   -49272.364   -35082.369     634.2968    1533959.3    296.57926 
  124300    308.87882    -59697.31   -48409.417   -32359.654    717.42893    1533959.3    285.01484 
  124400    313.50837   -59040.387   -47583.307   -28078.909    871.85211    1533959.3    287.22011 
  124500    323.25119   -58772.032   -46958.904   -26008.027    936.51012    1533959.3    290.07375 
  124600     334.5755   -58816.315   -46589.343   -26309.828    906.50008    1533959.3    289.53371 
  124700    322.77637   -58070.449   -46274.673   -23138.894    1034.1759    1533959.3    287.71424 
  124800    339.29714   -59087.802   -46688.279   -27063.621    877.22778    1533959.3    285.51929 
  124900    333.07864   -59640.586   -47468.316    -30038.81    779.10385    1533959.3    284.16193 
  125000    324.55303   -59980.443   -48119.739   -32752.316    686.92819    1533959.3    282.95518 
  125100    327.69557   -60702.652   -48727.106   -36342.815    553.58129    1533959.3    222.15111 
  125200    325.90168   -61094.544   -49184.555   -37382.567    527.55219    1533959.3    273.34874 
  125300    323.34953   -61339.629   -49522.907   -39620.357     442.6468    1533959.3     297.7822 
  125400    306.38716   -60639.923   -49443.086    -36989.21    556.69178    1533959.3    294.85296 
  125500    312.38168   -60297.343   -48881.438    -34525.71    641.70513    1533959.3    296.35693 
  125600    315.70874   -59583.899   -48046.408   -30752.837    773.02751    1533959.3    296.11736 
  125700    316.26036   -58779.703   -47222.053   -26622.752     920.7946    1533959.3    294.30201 
  125800    320.56566   -58277.567   -46562.581   -24668.119    978.68867    1533959.3    288.26911 
  125900    320.50904   -57733.836    -46020.92   -21954.619    1075.7704    1533959.3    289.31083 
  126000    341.05211   -58919.484   -46455.826   -26033.601    912.87926    1533959.3    287.52076 
  126100    334.83819   -59510.711   -47274.139   -29140.975    810.55757    1533959.3    223.19233 
  126200    327.09126   -59896.766   -47943.304   -32600.499     685.8277    1533959.3     295.1316 
  126300    322.74078   -60255.603   -48461.128   -34634.841    618.03895    1533959.3    294.22831 
  126400    313.37051   -60268.155   -48816.114   -34868.946    623.44239    1533959.3     291.7663 
  126500    329.26353   -61102.783   -49069.935   -38714.105    462.90856    1533959.3      292.639 
  126600    331.51582   -61646.209   -49531.052     -40724.3    393.66431    1533959.3    211.95289 
  126700    333.65674   -62367.917   -50174.522   -44424.084    257.04618    1533959.3    292.69556 
  126800    325.86997   -62664.204   -50755.374   -46269.159    200.53508    1533959.3    291.64458 
  126900    328.85771   -63227.015   -51208.998   -49107.774    93.925301    1533959.3    288.71121 
  127000    322.70595   -63358.255   -51565.052   -49357.353    98.684763    1533959.3    290.15281 
  127100    321.72434   -63601.571   -51844.242   -50865.386    43.755115    1533959.3    233.48334 
  127200    323.41699   -63956.429   -52137.242   -52277.602   -6.2741142    1533959.3    277.72378 
  127300    331.89952    -64589.34   -52460.161   -54839.175   -106.34262    1533959.3     272.1577 
  127400    336.32503   -65133.079   -52842.171   -57100.947   -190.36845    1533959.3    285.52512 
  127500    325.98867   -65206.281   -53293.112   -58067.529   -213.41776    1533959.3    254.99133 
  127600    322.73744   -65414.503   -53620.151   -59199.085   -249.37994    1533959.3    295.62189 
  127700    325.13158   -65771.847       -53890   -60507.978   -295.82547    1533959.3    296.05695 
  127800    326.72318   -66084.258   -54144.247   -62753.171   -384.82136    1533959.3    292.31125 
  127900     318.9856   -66082.288   -54425.045   -62285.719   -351.37434    1533959.3    273.40932 
  128000     330.6044   -66647.273   -54565.424   -64241.148   -432.50763    1533959.3    263.30964 
  128100    323.33918   -66710.545   -54894.202   -65815.065   -488.16566    1533959.3     268.5458 
  128200    327.91123    -67119.18   -55135.752   -66926.322   -527.04182    1533959.3    297.74669 
  128300    324.29057   -67289.991   -55438.879   -68358.242   -577.49914    1533959.3    284.69331 
  128400    327.97041   -67599.393   -55613.802   -69503.801   -620.88686    1533959.3    269.80442 
  128500    323.83226   -67742.666   -55908.303   -69877.329   -624.41942    1533959.3    281.75825 
  128600    326.99206   -68033.748   -56083.911   -71213.673   -676.30462    1533959.3    300.65618 
  128700    326.00894   -68245.761   -56331.851   -72296.561   -713.62704    1533959.3    304.18702 
  128800    326.61603   -68469.065    -56532.97   -72967.793   -734.64121    1533959.3    303.75106 
  128900    326.12202   -68692.847   -56774.806   -74349.194   -785.58013    1533959.3      304.189 
  129000    325.28262   -68874.325   -56986.959   -74596.662   -787.15871    1533959.3    299.82401 
  129100    322.15009   -68976.342   -57203.454   -75704.128   -826.98536    1533959.3    228.06683 
  129200    321.00208   -69019.711   -57288.776   -75708.535   -823.36843    1533959.3    263.11836 
  129300    320.34416   -68889.877   -57182.986   -74910.256   -792.41397    1533959.3    271.68683 
  129400    312.05102   -68387.811    -56983.99   -73051.972   -718.24332    1533959.3    271.17462 
  129500     306.7844   -67892.753     -56681.4   -70220.141   -605.18555    1533959.3    294.64024 
  129600    310.11149   -67577.747   -56244.806   -68840.532   -563.03252    1533959.3    292.79997 
  129700    314.58894   -67284.701   -55788.133   -66767.631   -490.78665    1533959.3    258.81132 
  129800    312.90594   -66791.542   -55356.478   -64055.642   -388.85506    1533959.3     284.4755 
  129900    320.60482    -66592.93   -54876.513   -63418.614   -381.83431    1533959.3    283.71446 
  130000    313.35602   -65881.583   -54430.072   -60082.807   -252.67889    1533959.3    288.07666 
  130100    318.47297   -65527.832   -53889.323   -57620.181   -166.77041    1533959.3    293.13045 
  130200    316.31434    -64918.92   -53359.298    -54996.98   -73.204879    1533959.3    296.51594 
  130300    332.52823   -65046.455     -52894.3   -55252.247   -105.40091    1533959.3    297.98784 
  130400    317.32726   -64169.909    -52573.27   -50994.524      70.5704    1533959.3    298.93591 
  130500    310.43889   -63364.423   -52019.517   -47964.777    181.24802    1533959.3    297.65541 
  130600    311.07848   -62737.498   -51369.219   -44318.229    315.18123    1533959.3    216.95499 
  130700    315.52214   -62285.178   -50754.507   -41745.064    402.72463    1533959.3    298.35518 
  130800    319.10562   -61864.811   -50203.182   -40156.954    449.06924    1533959.3    299.37887 
  130900    328.16036   -61820.364   -49827.832   -39792.059    448.60192    1533959.3    294.49439 
  131000    317.71371   -61027.099   -49416.337   -35292.737    631.32892    1533959.3    291.78579 
  131100    317.32424   -60561.964   -48965.435   -34390.414    651.50759    1533959.3     212.8897 
  131200    309.34051   -59399.064   -48094.298   -29412.965    835.06091    1533959.3    299.07702 
  131300    315.67137   -58956.537   -47420.412   -26475.061     936.2631    1533959.3     297.1891 
  131400    323.76391   -58701.274   -46869.409   -24845.797    984.46166    1533959.3    290.99547 
  131500    335.31644   -58802.431   -46548.382   -24827.635    970.92356    1533959.3    288.59619 
  131600    338.12036   -58927.566   -46571.048   -26023.449    918.48352    1533959.3    215.14117 
  131700    336.51565   -59570.028   -47272.154   -28818.334    824.89098    1533959.3    286.38037 
  131800    328.76583    -59927.89   -47913.231   -31263.864    744.23143    1533959.3     284.4213 
  131900    328.10442   -60517.271   -48526.783   -34575.765    623.61444    1533959.3    288.51043 
  132000     325.3816   -60944.329   -49053.346   -36473.336       562.33    1533959.3    286.10747 
  132100    328.98647   -61665.473   -49642.751   -39753.406     442.0565    1533959.3    193.02598 
  132200    334.18306   -62503.874   -50291.244   -44163.451    273.91408    1533959.3    299.63531 
  132300    325.15167   -62719.313   -50836.733   -45718.174    228.80102    1533959.3    294.06576 
  132400    324.70285   -63214.315   -51348.137    -47560.38    169.31379    1533959.3    294.99481 
  132500    327.25316   -63680.429    -51721.05    -49704.71    90.130937    1533959.3    285.07973 
  132600    322.94292   -63882.759   -52080.897   -51221.543    38.413377    1533959.3     287.0709 
  132700    328.72853   -64448.833   -52435.537   -53689.509   -56.052886    1533959.3    287.15679 
  132800    324.11619    -64641.32   -52796.581   -54845.404   -91.582986    1533959.3    287.53968 
  132900    321.98971   -64899.221   -53132.193   -56792.038   -163.59607    1533959.3    290.94884 
  133000    327.28629   -65409.729   -53449.139   -58723.988   -235.78723    1533959.3    294.49357 
  133100    327.80715   -65764.107   -53784.483   -60321.846   -292.22199    1533959.3    214.47954 
  133200    326.88303   -66062.951   -54117.098   -61927.576   -349.13059    1533959.3    253.97151 
  133300    322.37909   -66167.013   -54385.756   -62542.309   -364.60019    1533959.3    292.47024 
  133400    322.73277   -66441.881   -54647.699   -63479.008   -394.76201    1533959.3      294.244 
  133500    325.14191   -66816.087   -54933.863   -65478.678   -471.35619    1533959.3    303.70861 
  133600    327.70616   -67161.246   -55185.313   -66454.582   -503.73952    1533959.3    231.39519 
  133700    325.85116   -67374.355   -55466.211   -67866.509   -554.29682    1533959.3    303.25275 
  133800    330.49497    -67704.26    -55626.41   -68836.688   -590.50316    1533959.3    297.26871 
  133900    325.83124   -67847.484   -55940.068   -70323.391   -642.93857    1533959.3    298.42991 
  134000    327.59803   -68111.055   -56139.073   -71889.758   -704.06011    1533959.3    298.11153 
  134100    325.81877   -68288.251   -56381.292   -71913.493   -694.29377    1533959.3    230.16969 
  134200    326.12419   -68494.785   -56576.664    -72825.22   -726.31506    1533959.3    278.53842 
  134300    326.18302   -68649.762   -56729.491   -73939.864   -769.30853    1533959.3    297.03293 
  134400    328.98419   -68795.273   -56772.634   -74240.134   -780.80221    1533959.3    295.98843 
  134500    304.18685   -68102.895   -56986.468   -71902.522   -666.75182    1533959.3    284.07475 
  134600    304.88386   -67741.587   -56599.688   -70204.524   -608.14001    1533959.3    217.04402 
  134700    308.61122   -67408.582   -56130.468   -67878.062   -525.12081    1533959.3    269.51351 
  134800    310.68228   -67017.344   -55663.544   -65700.449   -448.65251    1533959.3    298.65005 
  134900    312.16905   -66570.813   -55162.679   -63895.685   -390.36784    1533959.3      296.219 
  135000    313.41326   -66105.859   -54652.256   -61751.757   -317.34971    1533959.3    286.96799 
  135100    313.35703    -65558.75   -54107.201   -58312.545   -187.98003    1533959.3     285.3499 
  135200    317.88753    -65163.62   -53546.506   -55788.289   -100.20833    1533959.3    298.53505 
  135300    314.99688   -64488.555   -52977.078   -52951.674    1.1355618    1533959.3    296.83008 
  135400    313.66118   -63820.526   -52357.863   -49546.095    125.68679    1533959.3    291.04474 
  135500     312.9401   -63161.011     -51724.7    -45898.77     260.4207    1533959.3    300.73637 
  135600    315.05078   -62614.307   -51100.861   -43721.918    329.84085    1533959.3    204.09871 
  135700    318.03193   -62119.551    -50497.16    -40315.54     455.1213    1533959.3    276.50443 
  135800    320.85999   -61733.883   -50008.141   -38591.092    510.34534    1533959.3    293.22144 
  135900     317.3279   -61069.475   -49472.812   -35715.141    614.97178    1533959.3    286.71787 
  136000    313.92871   -60303.511   -48831.071   -31797.594    761.40125    1533959.3    281.98253 
  136100    318.19503   -59789.788   -48161.436   -29492.178    834.52112    1533959.3    277.69822 
  136200    316.38482   -58949.236   -47387.038   -26549.458    931.44571    1533959.3    281.99675 
  136300    315.91506   -58264.721    -46719.69   -23610.524    1032.9863    1533959.3    277.60192 
  136400    330.51301   -58540.244   -46461.735   -23491.334    1026.7834    1533959.3    267.68252 
  136500    333.95581   -58826.601   -46622.275   -24732.897    978.46142    1533959.3    255.89645 
  136600    330.64308   -59445.883    -47362.62   -28681.261    835.06204    1533959.3    260.56659 
  136700    330.20378   -60193.517   -48126.309   -32924.985    679.50349    1533959.3    282.70953 
  136800    323.45194   -60516.376   -48695.911   -34589.481    630.56142    1533959.3    284.04339 
  136900    325.84406   -61187.539   -49279.656   -38157.435    497.16642    1533959.3    265.31249 
  137000    330.01516    -61972.23   -49911.915   -41469.274    377.38841    1533959.3    275.19549 
  137100    331.75757   -62633.014   -50509.023   -44128.251    285.22232    1533959.3    257.97528 
  137200    327.60008   -62991.855   -51019.798   -46261.489    212.69774    1533959.3    291.35245 
  137300     323.7692   -63271.244   -51439.186   -47978.082    154.71233    1533959.3    293.34018 
  137400    323.54542   -63606.173   -51782.292   -49765.033    90.172071    1533959.3    290.43007 
  137500    322.67359   -63964.343   -52172.323   -51660.422     22.88212    1533959.3    293.22862 
  137600    327.37256   -64479.877   -52516.134   -53924.123   -62.937511    1533959.3    236.49094 
  137700     330.2934   -64947.903   -52877.419   -56390.167    -157.0208    1533959.3    283.65977 
  137800    322.78937   -65046.035   -53249.784   -57375.867   -184.43707    1533959.3    289.70489 
  137900    327.44203   -65516.205   -53549.924   -59520.381    -266.8811    1533959.3     294.3365 
  138000    324.50256   -65699.785   -53840.926   -60077.923   -278.79552    1533959.3    288.03512 
  138100    327.40468   -66070.709   -54105.793   -61498.284   -330.44644    1533959.3    197.74258 
  138200    324.95007   -66187.217   -54312.003   -62400.092   -361.53984    1533959.3    299.78436 
  138300    320.85051   -66118.308   -54392.912   -62218.558   -349.80858    1533959.3    307.55711 
  138400    299.13573   -65109.309   -54177.475   -58945.978   -213.15343    1533959.3    300.80798 
  138500    305.90014   -64788.028   -53608.989   -56259.304    -118.4698    1533959.3     298.7679 
  138600     306.9089   -64197.098   -52981.194   -52960.924   0.90607305    1533959.3    193.39552 
  138700    308.76133   -63594.809    -52311.21   -49142.041    141.66274    1533959.3    300.53489 
  138800    310.43148   -62941.681   -51597.046     -46590.4    223.79848    1533959.3    294.66984 
  138900    315.44318   -62450.856    -50923.07   -43675.813    323.95446    1533959.3     295.9972 
  139000    312.34499   -61647.709   -50233.145   -39656.736    472.76845    1533959.3    291.99888 
  139100    314.48566   -61063.639   -49570.845   -36820.686    569.93571    1533959.3    216.32423 
  139200    313.08345   -60258.001    -48816.45   -32915.054     710.7969    1533959.3    276.84042 
  139300    314.47081    -59541.07   -48048.819   -29561.132    826.40483    1533959.3    283.22267 
  139400    319.56371   -59013.429   -47335.059    -26655.64    924.37588    1533959.3    284.13864 
  139500    319.05707   -58411.131   -46751.276    -23378.72    1044.7599    1533959.3    281.08114 
  139600    326.16325   -58332.518    -46412.97   -22976.145    1047.6327    1533959.3    274.01555 
  139700     322.6256   -57881.365   -46091.099   -21111.342    1116.6022    1533959.3    273.48919 
  139800    335.61706   -58976.748   -46711.713   -26492.638    903.79835    1533959.3    276.52959 
  139900    329.20077    -59468.25   -47437.696   -30051.261    777.17859    1533959.3    283.79182 
  140000    333.55445   -60419.277   -48229.619   -33560.096    655.73183    1533959.3    281.53716 
  140100    329.70738   -60781.606   -48732.538   -35493.508    591.78839    1533959.3     219.5804 
  140200    320.94644   -60889.481   -49160.579   -36461.098     567.6704    1533959.3      294.186 
  140300    326.80853   -61699.545   -49756.415   -40043.377    434.17554    1533959.3    301.93052 
  140400    324.21949   -62095.339   -50246.825   -42984.439     324.6307    1533959.3    302.11015 
  140500    324.72388   -62584.909   -50717.962   -45045.694    253.55197    1533959.3    300.24532 
  140600    328.55832   -63161.721   -51154.645   -47784.331      150.654    1533959.3    258.06448 
  140700    327.42115    -63520.42   -51554.903   -48865.402    120.22142    1533959.3    286.87829 
  140800     318.3931     -63522.4   -51886.809   -49743.795     95.79333    1533959.3    269.97253 
  140900    325.73169   -64073.565   -52169.788   -52958.477   -35.254611    1533959.3    276.43937 
  141000    325.30675   -64362.194   -52473.946   -54008.721   -68.604906    1533959.3    268.82583 
  141100    325.17902    -64666.07    -52782.49   -55536.385   -123.09989    1533959.3    234.35676 
  141200    323.28237   -64933.404   -53119.137   -56266.005   -140.66593    1533959.3    257.17853 
  141300    326.96695   -65356.422   -53407.503   -57835.681   -197.94082    1533959.3    287.94119 
  141400    326.27697   -65651.398   -53727.694   -60309.049   -294.18844    1533959.3    249.23606 
  141500    335.27263    -66237.71   -53985.261   -62285.838   -371.03812    1533959.3    278.61984 
  141600    332.38875   -66527.934   -54380.876   -63670.777   -415.26119    1533959.3     289.9376 
  141700    326.34784   -66707.638   -54781.344   -64805.732   -448.09301    1533959.3    294.88779 
  141800     328.3152   -67061.078   -55062.888   -66359.874   -504.97847    1533959.3    295.09837 
  141900    327.75927   -67308.644    -55330.77   -67961.634   -564.60322    1533959.3    295.09754 
  142000    326.43601   -67497.643   -55568.127   -68674.553   -585.86093    1533959.3    293.45819 
  142100    324.49407   -67659.859   -55801.311   -69757.416   -623.84183    1533959.3    204.73382 
  142200    327.89418   -67998.737   -56015.932   -70502.823   -647.56815    1533959.3    290.60897 
  142300    326.52062   -68195.515   -56262.907   -71961.868   -701.74801    1533959.3    245.61819 
  142400    336.95039   -68699.185   -56385.424   -73691.228   -773.57434    1533959.3    257.63048 
  142500    326.74472   -68748.144   -56807.346    -74067.13    -771.5172    1533959.3    265.28078 
  142600    323.87336   -68924.738   -57088.873   -74782.549   -790.91235    1533959.3    295.05665 
  142700    322.04726   -69059.579   -57290.448     -75826.7    -828.5757    1533959.3     301.2656 
  142800    312.67612   -68857.186   -57430.521   -74864.849   -779.31941    1533959.3    306.69757 
  142900    307.32367   -68410.245   -57179.184   -73341.027   -722.43893    1533959.3    300.91567 
  143000    310.38354   -68137.939   -56795.056   -71528.673   -658.59686    1533959.3    251.16992 
  143100    312.47794   -67792.052    -56372.63   -69065.939   -567.39452    1533959.3     225.9335 
  143200     311.7884   -67336.739   -55942.516    -67131.25   -500.13956    1533959.3    230.46361 
  143300    310.48221   -66822.757   -55476.268   -64252.732   -392.31043    1533959.3    256.55903 
  143400    314.87011   -66468.029   -54961.185    -62793.92   -350.12546    1533959.3    262.09224 
  143500    320.56654   -66227.344   -54512.326   -60647.156   -274.22863    1533959.3    237.11462 
  143600    323.64493   -65949.506   -54121.989    -59023.56   -219.10157    1533959.3    245.04692 
  143700    314.32993    -65238.07   -53750.967   -56905.882   -141.02558    1533959.3    276.48219 
  143800    310.95193   -64569.977   -53206.322   -53261.905   -2.4845661    1533959.3    281.16744 
  143900    314.32901   -64102.201   -52615.132    -50833.04    79.660023    1533959.3    298.35242 
  144000    315.11484   -63518.026   -52002.239   -47248.092    212.51174    1533959.3    282.12573 
  144100    314.89814    -62837.79   -51329.923   -44250.179    316.46653    1533959.3    255.48463 
  144200    315.04931   -62153.264   -50639.871   -40562.975    450.44014    1533959.3    258.05178 
  144300    316.90453   -61573.009   -49991.818   -39014.147    490.70501    1533959.3    259.52121 
  144400    320.44111   -61115.893   -49405.458   -36278.904     586.7607    1533959.3    290.06954 
  144500    319.86668   -60431.812    -48742.37   -31982.504    749.17075    1533959.3     288.7611 
  144600    319.78156   -59756.325   -48069.994   -29572.102    826.86098    1533959.3    285.64898 
  144700    318.86674   -59017.164   -47364.265   -26711.971    923.16337    1533959.3    282.80941 
  144800    317.52556   -58283.353   -46679.467   -22276.203    1090.8328    1533959.3    282.96701 
  144900    320.59449   -58095.484   -46379.444   -22009.108    1089.3609    1533959.3     282.3966 
  145000    324.48209   -58571.428   -46713.317   -24059.543    1012.6301    1533959.3    284.16598 
  145100    335.36098   -59662.403   -47406.726   -29108.297    817.94497    1533959.3    256.88382 
  145200    329.70608   -60118.145   -48069.125    -31983.52    719.03107    1533959.3    292.60898 
  145300    323.37541   -60456.794   -48639.127   -34192.102    645.78611    1533959.3    289.21049 
  145400    330.87576   -61353.967   -49262.201   -37898.119    507.97771    1533959.3    278.27084 
  145500     326.5489    -61652.39   -49718.748   -40296.287    421.18669    1533959.3    295.89217 
  145600    305.31655   -60557.188   -49399.477   -35938.183    601.72365    1533959.3    248.84967 
  145700    307.19959   -59843.857    -48617.33   -31444.561    767.62766    1533959.3    293.90585 
  145800     314.0452   -59404.583   -47927.886   -29462.443    825.41053    1533959.3    288.21523 
  145900    320.36182   -58943.181   -47235.645   -27239.209    893.84635    1533959.3    292.44985 
  146000    318.38722   -58082.771   -46447.396   -23201.615     1039.093    1533959.3     286.4189 
  146100    338.36823   -58658.242   -46292.665   -25091.947     947.6781    1533959.3    205.52153 
  146200    332.68151   -58760.133   -46602.376   -25451.225    945.46244    1533959.3    274.31304 
  146300    334.00706    -59662.26   -47456.062   -29731.466    792.29444    1533959.3    283.18271 
  146400    326.01716   -59988.566   -48074.356   -32084.411    714.75508    1533959.3    290.16787 
  146500    326.69164    -60635.08   -48696.222   -35444.044    592.37608    1533959.3     290.5363 
  146600    328.07438   -61184.638   -49195.248   -37473.966    523.94463    1533959.3    295.63668 
  146700    328.25813    -61638.06   -49641.955   -40132.079    425.09412    1533959.3    292.91857 
  146800    325.74022   -61966.878   -50062.789   -41512.011    382.22222    1533959.3    293.47626 
  146900    312.58035   -61627.352   -50204.188    -40739.59    423.07019    1533959.3    293.25691 
  147000    312.98938   -61060.695   -49622.582   -37130.646    558.39306    1533959.3    288.32142 
  147100    308.21745    -60058.83   -48795.106   -32995.574    706.24355    1533959.3    237.50144 
  147200    314.61064   -59606.399   -48109.038   -30277.775    797.06249    1533959.3    296.98897 
  147300    314.55865   -58802.929   -47307.468   -27038.154    906.04408    1533959.3    295.57376 
  147400    321.80699   -58479.931   -46719.581   -24982.996    971.63151    1533959.3    293.20094 
  147500    323.33265   -58016.087   -46199.983   -22187.571    1073.3616    1533959.3    283.38973 
  147600    334.37825   -58538.988   -46319.225   -24323.362    983.22128    1533959.3    283.63388 
  147700     334.8293    -59363.23   -47126.983   -28613.796     827.5447    1533959.3    289.19792 
  147800    324.33355   -59614.813    -47762.13   -30650.098    764.91269    1533959.3     291.7316 
  147900     328.9295   -60466.637   -48445.997   -34285.707    632.96893    1533959.3    288.52114 
  148000    325.67362   -60859.798   -48958.143   -36708.711     547.5531    1533959.3    287.41417 
  148100    324.71222   -61309.281    -49442.76   -38581.309    485.50996    1533959.3     265.6733 
  148200    332.51468   -62128.848   -49977.188   -42432.518    337.24888    1533959.3    292.61593 
  148300    321.05596   -62178.663   -50445.759    -43636.05    304.39593    1533959.3    296.08475 
  148400    322.02632   -62595.851   -50827.486   -45044.456    258.50307    1533959.3    298.83219 
  148500    324.08861   -62873.639   -51029.908    -46995.64    180.33295    1533959.3    299.17366 
  148600    304.20458   -61921.202   -50804.128   -42855.293    355.31517    1533959.3    281.62033 
  148700    310.66292   -61508.911   -50155.818   -40775.526    419.30172    1533959.3    296.23322 
  148800    308.72263   -60690.649   -49408.463   -37146.037     548.1339    1533959.3    292.27886 
  148900    311.89216   -60017.589   -48619.573   -33055.872    695.70186    1533959.3    290.95894 
  149000     311.4639   -59134.515   -47752.151   -28822.716    846.15111    1533959.3     285.9292 
  149100    316.66606   -58649.415   -47076.939   -26399.275    924.29743    1533959.3    281.34925 
  149200    322.22909   -58277.071   -46501.295   -24842.839    968.13913    1533959.3    296.79059 
  149300    315.27292   -57543.092   -46021.528   -21637.988    1089.9511    1533959.3    291.07342 
  149400    329.31794   -58190.506    -46155.67   -24800.711    954.57273    1533959.3    300.24338 
  149500    333.90552   -58994.831   -46792.343    -28375.31     823.2466    1533959.3    293.74181 
  149600    326.67663   -59417.172   -47478.862   -29634.324    797.65591    1533959.3    169.77153 
  149700    322.86388   -59910.128   -48111.154   -32827.552    683.18132    1533959.3     291.7799 
  149800    328.43348   -60705.766   -48703.253   -36645.305    538.99366    1533959.3    292.42089 
  149900    321.05621   -60804.869   -49071.956   -36762.507    550.23583    1533959.3    292.11581 
  150000    327.19455   -61522.458   -49565.221   -40591.164    401.14287    1533959.3    269.92214 
  150100    326.72021   -61848.169   -49908.267   -42902.062    313.17935    1533959.3    288.77044 
  150200    323.23707   -62133.248   -50320.636    -44076.54    279.11282    1533959.3    302.86779 
  150300    329.83864   -62811.826   -50757.962   -46614.216     185.2266    1533959.3    303.77592 
  150400    324.99452   -63127.295   -51250.458   -48177.348    137.36885    1533959.3    305.07335 
  150500    325.96955   -63534.186   -51621.717   -50636.588    44.035518    1533959.3    302.58375 
  150600    307.69857   -62678.212   -51433.451   -47043.984    196.21041    1533959.3     247.4739 
  150700    310.94933   -62179.578   -50816.018   -43924.415    308.05664    1533959.3    291.51728 
  150800    313.27952   -61625.272   -50176.556   -40883.329    415.40985    1533959.3    287.59844 
  150900     309.4483   -60718.018   -49409.313   -36317.853    585.19196    1533959.3    292.81122 
  151000    314.00969    -60238.45    -48763.05   -33536.424    680.63447    1533959.3    286.62657 
  151100    314.37091   -59489.116   -48000.516   -30100.083     800.1544    1533959.3    249.02505 
  151200    316.56767   -58839.504   -47270.624   -26712.527    918.95274    1533959.3    296.13471 
  151300    318.40494   -58167.673    -46531.65   -24461.388    986.54694    1533959.3    287.55388 
  151400    320.89542   -57810.665   -46083.628   -22213.861    1066.9854    1533959.3    287.66471 
  151500    323.08728   -57922.375   -46115.237   -22902.241    1037.6275    1533959.3    286.85514 
  151600    335.96606   -59285.104   -47007.315   -29318.655    790.68807    1533959.3    259.36908 
  151700    323.86153   -59427.048   -47591.616   -29612.081    803.69027    1533959.3    282.82143 
  151800    328.75736   -60294.833   -48280.484   -34216.294    628.67327    1533959.3    285.40932 
  151900    324.31407   -60591.805   -48739.834   -36703.377    538.03304    1533959.3    290.02321 
  152000    331.49765   -61384.153    -49269.66   -40056.185    411.84497    1533959.3    290.99103 
  152100    328.32103   -61793.706   -49795.302   -41834.978    355.82874    1533959.3    251.75547 
  152200    329.91626   -62357.176   -50300.476   -45051.089    234.64908    1533959.3    253.38205 
  152300    327.57277   -62735.446   -50764.388   -46170.198    205.36156    1533959.3    247.25784 
  152400    327.67989   -63188.373     -51213.4   -48406.908    125.45098    1533959.3    261.45295 
  152500    323.21367   -63408.462   -51596.705   -49911.022    75.350547    1533959.3    253.06467 
  152600     326.8046   -63642.843   -51699.857   -51209.717    21.909383    1533959.3    260.81936 
  152700    328.48014   -63878.305   -51874.087   -51547.603    14.593933    1533959.3      294.244 
  152800    327.77358   -64083.124   -52104.726   -52980.968   -39.168257    1533959.3    296.08935 
  152900    321.34116   -64077.765   -52334.438   -53248.589   -40.862791    1533959.3    282.98458 
  153000    324.03626   -64376.692   -52534.874   -54223.906   -75.500198    1533959.3      293.293 
  153100    328.34141   -64732.865   -52733.717   -55729.887   -133.92966    1533959.3    300.10289 
  153200    308.90904    -64301.27   -53012.272   -54556.895   -69.045075    1533959.3    307.48812 
  153300    300.83316   -63641.577    -52647.71   -51461.646    53.017374    1533959.3    306.32843 
  153400    302.24871   -63066.173   -52020.575   -48012.785    179.14935    1533959.3    303.79704 
  153500    309.82311   -62674.801   -51352.399   -47164.952    187.18006    1533959.3    302.09013 
  153600     315.5462   -62200.418   -50668.867   -42954.223    344.84679    1533959.3    240.75212 
  153700    312.63188   -61320.231   -49895.184   -38978.893     487.9613    1533959.3    297.13625 
  153800    312.12606   -60497.899   -49091.336   -35398.054    612.09359    1533959.3    296.05863 
  153900     310.8141   -59616.618   -48258.001   -31012.954    770.85848    1533959.3    295.27184 
  154000    317.29147   -59135.552    -47540.22   -28194.575    864.75582    1533959.3    284.89462 
  154100    321.23125    -58581.73    -46842.42   -25601.131    949.49161    1533959.3    262.54569 
  154200    323.84097   -58130.788   -46296.107   -23397.819    1023.5599    1533959.3    285.50957 
  154300    337.21303   -58896.857   -46573.497   -26976.787    875.97851    1533959.3    291.07585 
  154400    329.41305   -59331.277   -47292.966   -29460.468    797.11768    1533959.3    287.99101 
  154500    326.04205   -59941.361   -48026.241   -32362.553    700.17131    1533959.3    294.08823 
  154600    307.00767   -59236.767   -48017.255   -29889.218    810.32837    1533959.3    289.89892 
  154700    316.51012   -59208.929   -47642.152   -28344.011    862.63239    1533959.3    279.48798 
  154800    315.17641   -58431.403   -46913.366   -25487.711    957.73282    1533959.3    271.60045 
  154900     324.6548   -58227.861   -46363.438   -24854.549    961.45345    1533959.3    273.19046 
  155000    338.04363   -58477.627   -46123.914   -24219.686    979.12516    1533959.3    276.55712 
  155100    337.92764   -58810.487   -46461.012   -25835.907      921.948    1533959.3    297.49327 
  155200    328.78724   -59102.133   -47086.691   -28443.844    833.34055    1533959.3    303.65035 
  155300    323.57962   -59489.883   -47664.753   -30328.817    774.92125    1533959.3    299.39319 
  155400    322.99304   -60070.581   -48266.887   -33450.576    662.29333    1533959.3    297.68646 
  155500    325.60961   -60580.135    -48680.82   -35744.204    578.27039    1533959.3    298.43267 
  155600    326.61273   -60974.816   -49038.842   -37519.289    514.92726    1533959.3    235.67279 
  155700    326.83034   -61456.956   -49513.029   -39727.096      437.434    1533959.3    297.17857 
  155800    329.35353   -62006.509   -49970.373   -42280.805    343.72587    1533959.3    296.42101 
  155900    308.18446    -61282.29   -50019.772   -39854.673    454.38281    1533959.3     296.1621 
  156000    333.80773   -62120.455   -49921.542   -43271.378    297.26421    1533959.3    272.91599 
  156100    333.26593   -62467.694    -50288.58   -44429.647    261.89596    1533959.3    251.62422 
  156200    328.07312   -62782.774    -50793.43   -46779.765    179.41199    1533959.3    303.10395 
  156300    328.44316   -63302.284   -51299.417   -49175.858    94.923675    1533959.3    304.09924 
  156400    325.96568   -63646.709   -51734.381   -50828.121    40.510098    1533959.3    301.92052 
  156500    328.62648   -64148.592   -52139.026   -52987.805   -37.940658    1533959.3    302.39243 
  156600    326.22087   -64450.869   -52529.215   -54554.955   -90.551133    1533959.3    185.62662 
  156700    327.15262    -64775.13   -52819.425   -56452.373   -162.39379    1533959.3    300.01102 
  156800    325.59774   -64963.849   -53064.967   -57055.273   -178.36781    1533959.3    299.36627 
  156900    329.54224   -65232.802    -53189.77   -58432.631    -234.3574    1533959.3    299.97411 
  157000    322.91068    -65162.05   -53361.366   -58150.894   -214.09324    1533959.3    295.68211 
  157100     330.0308   -65643.462   -53582.575   -60160.227    -294.0229    1533959.3    247.92855 
  157200     328.3602   -65841.073   -53841.238   -60746.337    -308.6599    1533959.3    295.84312 
  157300    337.43787    -66428.11   -54096.534   -63518.488     -421.164    1533959.3    294.11339 
  157400    329.88108   -66578.483   -54523.067   -64327.915   -438.27946    1533959.3    310.16604 
  157500    327.52507   -66846.542   -54877.226   -65927.539   -493.95211    1533959.3    306.99614 
  157600     324.6758   -67061.074   -55195.884   -66765.389   -517.16015    1533959.3    239.06401 
  157700    326.97814    -67403.09   -55453.762   -68464.874   -581.60039    1533959.3    306.71641 
  157800    319.97403    -67423.27   -55729.905   -68824.564   -585.33494    1533959.3    307.78145 
  157900    326.34462   -67746.808   -55820.631   -70293.451   -646.93915    1533959.3      306.379 
  158000    324.02872   -67877.289   -56035.747   -70535.379   -648.13765    1533959.3    302.75062 
  158100    326.65633   -68094.395   -56156.827   -71818.959    -700.1017    1533959.3    196.98763 
  158200    325.34166   -68197.872   -56308.349   -72360.955   -717.55604    1533959.3    306.72112 
  158300    325.58566   -68388.378   -56489.937    -72802.21   -729.16321    1533959.3     292.7546 
  158400    323.49256   -68515.258   -56693.309   -73608.217   -756.10119    1533959.3    275.25545 
  158500    326.33723   -68765.339   -56839.432   -74188.022   -775.48687    1533959.3    274.78947 
  158600    323.60447   -68825.539   -56999.501   -75092.784   -808.77491    1533959.3    279.79075 
  158700    322.72633   -68956.393   -57162.446   -74979.412   -796.42343    1533959.3    291.35488 
  158800    319.66361   -68966.964   -57284.943   -75169.165   -799.42976    1533959.3     285.5535 
  158900    302.30915   -68418.282   -57370.475   -73713.873   -730.55451    1533959.3    286.85102 
  159000    304.32204   -68088.136   -56966.769   -71841.814   -664.91872    1533959.3    287.80368 
  159100    302.76564   -67539.519    -56475.03   -68511.677    -538.0415    1533959.3    236.54709 
  159200    305.40259   -67067.203   -55906.347   -66896.728   -491.27312    1533959.3    274.83772 
  159300    312.26473   -66732.059   -55320.429   -64350.682   -403.65487    1533959.3    300.87314 
  159400    319.74834   -66481.806   -54796.689   -62848.926   -359.93729    1533959.3     282.2801 
  159500    319.40306   -66070.688    -54398.19   -60477.654   -271.75378    1533959.3    278.06127 
  159600    321.29514   -65766.558   -54024.913   -59344.938   -237.80662    1533959.3    293.77555 
  159700    318.52276   -65254.012   -53613.684   -56971.751   -150.10657    1533959.3    297.51901 
  159800    310.48275   -64395.513   -53049.005   -52522.402    23.539279    1533959.3    300.47891 
  159900     312.3025   -63822.537   -52409.526   -49469.516     131.4193    1533959.3    295.16898 
  160000    321.81657   -63639.048   -51878.349   -48344.188    157.97799    1533959.3    291.80974 
  160100    318.01046   -62953.265   -51331.658   -44707.585    296.09793    1533959.3    225.39782 
  160200    323.31893   -62622.628   -50807.025   -43008.953    348.57602    1533959.3    298.79387 
  160300    315.47635   -61736.813   -50207.815   -39409.674    482.67996    1533959.3    299.17537 
  160400    309.51245   -60757.096   -49446.047   -34515.998    667.37739    1533959.3    299.72074 
  160500    314.33017   -60218.145   -48731.033   -32191.624    739.31625    1533959.3    295.82643 
  160600    316.71287   -59602.014   -48027.827   -28500.936    872.85755    1533959.3    203.05559 
  160700    316.81707   -58907.866   -47329.871   -25162.442    990.89037    1533959.3    279.55373 
  160800    321.89921   -58523.923   -46760.203   -23576.178    1036.3325    1533959.3    277.32256 
  160900    327.43536   -58383.267    -46417.23   -23600.309    1019.9228    1533959.3     283.2548 
  161000    337.01864   -58746.756   -46430.501   -25007.024    957.63549    1533959.3    283.71925 
  161100    331.85689   -59210.475   -47082.854   -27795.446     862.1526    1533959.3    272.36377 
  161200    329.08277   -59884.093   -47857.851   -31621.784    725.75681    1533959.3    286.41401 
  161300    331.15489   -60665.491   -48563.525   -34956.305    608.24659    1533959.3     297.1432 
  161400    325.05583   -60966.995   -49087.917   -37142.724     533.9535    1533959.3    296.10691 
  161500    324.14882   -61428.543   -49582.612   -39577.133    447.24771    1533959.3    289.65528 
  161600    327.08868   -61568.326   -49614.958   -39680.356    444.07952    1533959.3    178.79524 
  161700    306.62522   -60590.691   -49385.155   -35475.972    621.74441    1533959.3    293.35741 
  161800    311.53772   -60193.418   -48808.356   -33448.795     686.5767    1533959.3    292.20108 
  161900    309.35459   -59236.924   -47931.644   -29465.207    825.45497    1533959.3    285.25636 
  162000    316.06033   -58838.289    -47287.95   -26665.524    921.82826    1533959.3    284.83696 
  162100    315.59792   -58063.163   -46529.722   -23362.182    1035.5956    1533959.3    232.56997 
  162200    324.92248   -58061.545    -46187.34   -22440.059    1061.5102    1533959.3    288.17879 
  162300    343.35583   -58997.156   -46449.309   -27861.738    830.86969    1533959.3    292.05438 
  162400    330.20528   -59107.067   -47039.804   -28467.883    830.17013    1533959.3    290.61138 
  162500    331.49523   -59937.455    -47823.05   -32086.507    703.42795    1533959.3    295.63668 
  162600    325.16779   -60255.354   -48372.185   -34553.022    617.72049    1533959.3    250.26098 
  162700    310.52526   -59825.081   -48477.018   -33536.721    667.83555    1533959.3    292.66125 
  162800    332.36697   -60725.336   -48579.075   -35738.985    573.95563    1533959.3    291.99888 
  162900    320.91221   -60358.265   -48630.614   -34556.159    629.13212    1533959.3    286.03293 
  163000    308.99808   -59253.715   -47961.464   -30211.547    793.42628    1533959.3    266.22152 
  163100    312.61848    -58632.92   -47208.362   -26721.314    915.77681    1533959.3    199.84934 
  163200    320.22286    -58302.22   -46599.762   -24810.359    973.99248    1533959.3     291.5189 
  163300    324.73809   -57931.422   -46063.956   -22910.127    1034.9827    1533959.3    290.33378 
  163400    337.04765   -58419.539   -46102.223   -24436.063    968.48352    1533959.3     291.8201 
  163500    333.07539   -58955.286   -46783.135   -27499.877    861.96712    1533959.3    291.91373 
  163600       321.52   -59088.063   -47338.201   -28986.705    820.31704    1533959.3    203.75644 
  163700    327.52679   -59544.351   -47574.972   -31255.772    729.47285    1533959.3     295.1586 
  163800    330.20005   -60023.892    -47956.82   -33091.336    664.49131    1533959.3    292.77259 
  163900    334.14454   -60818.483   -48607.261   -36694.587     532.4999    1533959.3     291.4474 
  164000    334.46659   -61514.185   -49291.193    -40164.74    407.95502    1533959.3    290.41238 
  164100    331.71073   -62035.833   -49913.554   -43218.867     299.2544    1533959.3    248.78709 
  164200    327.81553   -62458.279   -50478.349   -45649.982    215.82936    1533959.3    299.75758 
  164300    330.53223   -63048.249   -50969.038   -48081.182    129.08797    1533959.3    300.23801 
  164400       325.69   -63305.489   -51403.236    -48780.58    117.23345    1533959.3    297.28557 
  164500    329.83605   -63847.856   -51794.086   -51641.306    6.8293189    1533959.3    297.26597 
  164600    328.03224   -64140.229   -52152.379   -52955.074   -35.880718    1533959.3    158.27873 
  164700    328.01007   -64515.718   -52528.678   -54873.257   -104.80336    1533959.3     300.3111 
  164800     324.6444   -64698.448   -52834.406   -56313.335   -155.50908    1533959.3    301.52267 
  164900    307.67349   -64079.819   -52835.974   -54329.979   -66.782473    1533959.3    303.25078 
  165000    306.62444   -63433.103   -52227.596   -51226.503    44.749141    1533959.3    299.14229 
  165100    309.43475   -62880.193   -51571.983   -47174.505     196.5685    1533959.3    195.46757 
  165200    311.32835   -62271.207   -50893.796   -44132.154    302.24732    1533959.3    310.21398 
  165300    314.77661   -61737.577    -50234.15   -40937.463    415.56454    1533959.3     305.6095 
  165400    318.33099   -61277.224   -49643.904   -39388.311    458.42791    1533959.3    302.41162 
  165500    321.84776   -60829.435   -49067.595   -36676.374    553.89109    1533959.3    296.83638 
  165600    323.47867   -60321.898   -48500.457   -34161.064    640.97493    1533959.3    256.32745 
  165700    317.99972   -59378.945    -47757.73   -29427.928    819.34733    1533959.3    294.90272 
  165800    316.73259   -58536.385   -46961.478   -26989.886     892.7358    1533959.3    293.12533 
  165900    322.93096   -58177.591   -46376.166   -23948.953    1002.5028    1533959.3     289.5445 
  166000    324.59415   -57977.216    -46115.01   -23531.505    1009.4891    1533959.3    282.50178 
  166100     335.7949   -58958.161   -46686.627   -27098.333    875.60226    1533959.3    244.41932 
  166200    330.74979   -59481.972    -47394.81   -30505.218    754.96951    1533959.3     296.2734 
  166300    326.48706    -59955.01   -48023.628   -33103.555    666.93153    1533959.3    298.84028 
  166400    328.68435   -60690.198   -48678.517   -36609.853    539.47267    1533959.3    291.66425 
  166500     332.2066   -61482.197   -49341.796   -40964.627    374.46186    1533959.3    289.73751 
  166600     322.1039   -61659.299   -49888.098   -41805.137    361.31066    1533959.3    286.41635 
  166700    326.85432   -62376.965   -50432.162   -44915.527    246.59513    1533959.3    296.00952 
  166800    329.43529   -62969.944   -50930.819   -47804.648    139.74073    1533959.3    297.16004 
  166900    323.53951    -63129.65   -51305.985   -49147.377    96.490404    1533959.3    298.46728 
  167000    323.47857   -63525.211   -51703.774   -50868.674    37.329191    1533959.3    293.76876 
  167100    323.07522   -63844.481   -52037.784   -52570.857     -23.8285    1533959.3    252.23343 
  167200     329.0797   -64373.238   -52347.109   -54543.317   -98.171087    1533959.3    302.14127 
  167300    330.93102    -64842.01   -52748.225   -56932.371   -187.03251    1533959.3    302.19243 
  167400     324.7463   -65052.003   -53184.237   -58237.697    -225.8911    1533959.3     297.3625 
  167500    326.01826   -65409.088   -53494.838   -59681.371   -276.53979    1533959.3    304.10387 
  167600    331.76522   -65857.114   -53732.844   -61905.352   -365.31344    1533959.3    158.00534 
  167700    328.35788   -66076.497   -54076.746   -62931.058   -395.79022    1533959.3     296.6424 
  167800    328.10976   -66378.369   -54387.686   -64053.904   -432.08269    1533959.3    298.70024 
  167900    323.45909   -66548.063   -54727.337   -65091.388   -463.27601    1533959.3    304.20732 
  168000    326.40977   -66915.722   -54987.165   -66486.814   -514.03757    1533959.3    298.89394 
  168100    323.69423   -67083.767   -55254.448   -67393.182   -542.60485    1533959.3    256.78883 
  168200    325.44354    -67346.03   -55452.783   -68450.569    -581.0047    1533959.3    289.98531 
  168300    320.40107   -67418.317   -55709.346   -69123.636   -599.62256    1533959.3    299.72438 
  168400    317.69228   -67434.668   -55824.688   -69189.994   -597.43295    1533959.3    298.34882 
  168500    308.35489   -66843.837   -55575.091   -66682.096   -496.48628    1533959.3    299.32332 
  168600    308.57887    -66377.65   -55100.718   -64167.023   -405.26639    1533959.3    192.80229 
  168700    308.96775   -65865.493    -54574.35    -61351.39   -302.93564    1533959.3    302.15216 
  168800    312.13272    -65454.86   -54048.054   -59031.985   -222.78311    1533959.3    294.96535 
  168900    313.42519   -64974.534   -53520.495   -56936.757   -152.70787    1533959.3    293.47872 
  169000    315.75767   -64504.338   -52965.058   -54412.366   -64.695069    1533959.3    293.43684 
  169100    320.74366   -64195.469   -52473.978    -51874.06    26.816498    1533959.3    266.68294 
  169200     311.0918   -63235.401   -51866.634   -47637.486     189.0441    1533959.3    303.04504 
  169300    314.41795   -62715.218   -51224.899   -44519.971    299.71216    1533959.3    301.89509 
  169400    316.75409   -62190.758   -50615.065   -42519.583    361.87032    1533959.3    301.04245 
  169500     319.6666   -61714.885   -50032.755   -39976.432    449.52045    1533959.3    301.87858 
  169600    317.91166   -61053.172   -49435.176   -37463.809    535.12347    1533959.3    170.33426 
  169700    318.07984   -60513.295   -48889.153   -33498.596    687.96226    1533959.3    296.25059 
  169800    316.88148   -59920.704   -48340.355   -31759.327    741.17664    1533959.3    293.21386 
  169900    318.52714    -59400.69   -47760.202   -29135.285    832.53905    1533959.3    295.10709 
  170000    317.40796    -58694.58   -47094.991   -26011.195    942.45166    1533959.3    288.13385 
  170100    328.82974   -58688.796   -46671.802   -25452.458    948.51067    1533959.3    201.31377 
  170200     326.9656   -58268.348   -46319.478   -23678.136    1012.0744    1533959.3    284.17156 
  170300    333.61455   -58863.654     -46671.8   -26235.464    913.50999    1533959.3     296.5908 
  170400    331.47903   -59592.152    -47478.34   -30033.814    779.77525    1533959.3    292.33264 
  170500    334.85371   -60429.498   -48192.359   -34383.063    617.27945    1533959.3    294.48054 
  170600    330.80451   -60908.356   -48819.194   -36660.078    543.51594    1533959.3    272.25487 
  170700    333.36204   -61668.189   -49485.563   -40461.064    403.39766    1533959.3    294.15815 
  170800    329.35081    -62091.81   -50055.773   -42223.429    350.10799    1533959.3    292.92962 
  170900    323.54696   -62366.037     -50542.1   -44373.795    275.72498    1533959.3    295.33816 
  171000     319.3409   -62649.502   -50979.275   -45975.818    223.65594    1533959.3    292.76135 
  171100    326.95118   -63321.171   -51372.829   -49166.962    98.602852    1533959.3    222.41451 
  171200    324.43631   -63651.277    -51794.84   -50307.855    66.468658    1533959.3    295.01493 
  171300    330.08659   -64258.578   -52195.653   -53212.377   -45.447844    1533959.3    303.32534 
  171400    334.02749    -64796.94   -52589.995   -55559.018   -132.71614    1533959.3     305.1133 
  171500    328.54779    -65033.32   -53026.629   -56477.669   -154.26245    1533959.3    304.38813 
  171600    324.92759   -65294.347   -53419.955   -58243.138   -215.59765    1533959.3    226.14717 
  171700    325.67793   -65648.768   -53746.956   -59694.501   -265.85696    1533959.3    302.80089 
  171800    327.80255   -66054.078   -54074.622   -62086.056   -358.11339    1533959.3    300.67859 
  171900    328.88764   -66350.976   -54331.866   -63097.044   -391.80594    1533959.3    301.46546 
  172000    324.13602   -66495.447   -54649.984   -64396.958   -435.69252    1533959.3    298.62241 
  172100     329.4478   -66871.767   -54832.186   -65460.284   -475.07901    1533959.3    230.88454 
  172200    321.69291   -66925.863   -55169.682    -66309.44   -497.95034    1533959.3    286.23848 
  172300    327.42772   -67329.469   -55363.712   -68133.221   -570.80069    1533959.3    292.54735 
  172400    332.39893   -67795.582   -55648.152   -69691.334    -627.7342    1533959.3    289.19952 
  172500    326.81927   -67935.061   -55991.539   -70787.724   -661.39366    1533959.3    285.62934 
  172600    319.44713   -67965.826   -56291.717   -71628.615   -685.56368    1533959.3     251.3025 
  172700    323.08897   -68189.673   -56382.473   -72304.558   -711.72169    1533959.3    309.84389 
  172800    323.30252   -68398.602   -56583.599   -72538.889   -713.20599    1533959.3    308.17018 
  172900     318.7016   -68458.045    -56811.18   -73432.614   -742.98279    1533959.3    308.88893 
  173000    323.20338   -68615.859   -56804.479   -74137.887   -774.80828    1533959.3    305.22143 
  173100    303.73638   -67893.209   -56793.244   -71113.278   -640.10955    1533959.3    227.09058 
  173200     305.5044   -67544.099   -56379.523   -69203.678   -573.24334    1533959.3    301.38726 
  173300    312.05244   -67300.201   -55896.328   -67673.813    -526.4569    1533959.3    296.04024 
  173400    313.90234   -66929.546   -55458.069   -64964.948   -424.96018    1533959.3    287.17881 
  173500    310.98713   -66427.725   -55062.784   -62826.776   -347.05261    1533959.3    291.35994 
  173600    312.35489   -66031.704   -54616.779    -60583.26   -266.70342    1533959.3    298.71896 
  173700    309.46102   -65449.577   -54140.407   -58133.921    -178.5112    1533959.3    294.66177 
  173800    310.74472   -64989.624   -53633.542   -55487.729   -82.882679    1533959.3    293.31618 
  173900    324.80604    -65016.58   -53146.631     -55050.8   -85.116876    1533959.3    294.62637 
  174000    316.78698   -64259.033   -52682.138   -52338.644    15.354278    1533959.3    289.41144 
  174100    317.69954   -63809.284   -52199.039   -49474.704    121.77853    1533959.3    289.34755 
  174200    315.98113   -63202.608   -51655.163   -46756.695    218.96292    1533959.3    282.75908 
  174300    315.08686   -62607.332   -51092.567   -42714.708    374.49269    1533959.3     291.4636 
  174400    321.02678   -62298.946   -50567.108   -41583.772    401.55767    1533959.3    298.63325 
  174500    317.12036   -61569.164   -49980.086   -38292.165    522.45338    1533959.3    299.36605 
  174600    316.31205   -60965.921   -49406.382   -35571.677    618.41525    1533959.3    252.57123 
  174700    319.35768   -60634.603   -48963.762   -33757.097    679.74222    1533959.3    282.93513 
  174800    315.48668   -59993.625   -48464.249    -31207.24    771.39318    1533959.3     285.2391 
  174900    316.03555   -59471.654    -47922.22    -28569.63    865.06622    1533959.3    289.28988 
  175000    317.99753   -58996.665    -47375.53   -26701.771     924.1229    1533959.3    285.74453 
  175100    318.92538   -58431.111   -46776.069   -23975.048    1019.2121    1533959.3     277.1503 
  175200    325.50998   -58471.374     -46575.7   -23477.646    1032.4895    1533959.3    289.40046 
  175300     333.4265   -58662.719   -46477.738   -24835.837    967.39907    1533959.3    283.11294 
  175400    336.96427   -59123.615   -46809.346   -26588.714    903.86798    1533959.3    283.79412 
  175500    332.86305   -59607.704   -47443.313   -28711.858    837.30136    1533959.3    291.89077 
  175600    331.66586     -60155.4    -48034.76   -32463.446    696.04214    1533959.3    194.07975 
  175700     331.2276   -60804.252   -48699.629   -35196.674    603.58589    1533959.3    291.87371 
  175800    330.88063     -61444.5   -49352.556   -38623.835    479.57689    1533959.3    292.15081 
  175900    329.20061   -61989.434   -49958.886    -41732.08    367.74055    1533959.3    293.36685 
  176000    330.43166   -62586.958   -50511.422    -45287.16    233.52599    1533959.3    289.76954 
  176100    328.90437   -63009.199   -50989.477   -46608.086    195.84943    1533959.3    203.20827 
  176200    326.32599   -63240.248   -51314.753    -48155.48    141.22038    1533959.3     301.1676 
  176300    326.42571   -63626.771   -51697.631   -49904.289    80.162913    1533959.3    303.44319 
  176400    328.34079   -64094.074   -52094.948   -51886.365    9.3237119    1533959.3    301.10944 
  176500    326.65521   -64373.238   -52435.711   -54063.586    -72.76647    1533959.3    298.47535 
  176600    326.69586   -64728.426   -52789.413   -54860.072   -92.559049    1533959.3    215.87275 
  176700    325.98034   -65087.894    -53175.03   -56589.771   -152.63993    1533959.3    289.52951 
  176800    325.79907   -65434.175   -53527.935       -58843   -237.58491    1533959.3    297.06365 
  176900    329.57978   -65852.239   -53807.835   -60690.299    -307.6481    1533959.3    297.12825 
  177000    320.36639    -65871.82   -54164.117   -60786.121   -296.00548    1533959.3    297.76085 
  177100    329.61329   -66342.951   -54297.322   -62920.828   -385.47315    1533959.3    231.04238 
  177200     325.3233   -66486.148   -54597.295   -63346.948   -391.11196    1533959.3    303.79638 
  177300    320.41538   -66529.871   -54820.377   -64125.637   -415.94775    1533959.3    294.59513 
  177400    328.05398   -66894.777   -54906.133   -65345.344   -466.63572    1533959.3    304.57512 
  177500    329.13894   -67197.527   -55169.233   -67348.262   -544.40606    1533959.3    302.65624 
  177600    329.15124    -67490.84   -55462.096   -68213.513   -569.99194    1533959.3    233.19749 
  177700    335.21536   -67911.501   -55661.145   -70140.242   -647.21971    1533959.3    303.78516 
  177800    326.04323    -67957.62   -56042.458    -70986.11   -667.98549    1533959.3    301.50187 
  177900    325.22712   -68156.363   -56271.025   -71815.479   -694.84147    1533959.3    301.46351 
  178000    336.16819    -68628.16   -56342.984   -72851.229   -737.92326    1533959.3    292.83861 
  178100    329.73638   -68768.547    -56718.42   -74072.105   -775.71464    1533959.3    236.22123 
  178200    323.62289    -68847.64   -57020.928   -74894.158   -798.93842    1533959.3    309.90753 
  178300    322.25884   -68995.596   -57218.733   -76082.628   -843.22144    1533959.3    305.07512 
  178400    317.43533   -68922.364   -57321.775   -75613.845   -817.66073    1533959.3    306.14665 
  178500    321.04198   -68887.052   -57154.659   -74990.161   -797.25196    1533959.3    307.07615 
  178600    314.85573    -68403.65   -56897.332   -72673.246   -705.18784    1533959.3    217.84688 
  178700    309.55348    -67908.64   -56596.091   -70158.836   -606.25857    1533959.3    304.89195 
  178800     308.2976   -67446.586   -56179.933   -67813.207   -520.01067    1533959.3    304.26403 
  178900    315.38351   -67231.472   -55705.866   -67000.143   -504.85737    1533959.3    300.20126 
  179000    321.19232   -66998.827    -55260.94   -65173.779   -443.10671    1533959.3    290.84474 
  179100    316.04373   -66440.516   -54890.782   -62273.136   -329.99331    1533959.3    200.70322 
  179200     312.8048   -65868.519   -54437.152   -60067.162   -251.66307    1533959.3     279.8714 
  179300    312.07428   -65327.329   -53922.658   -57038.253   -139.26798    1533959.3    272.90871 
  179400    315.74376   -64939.829   -53401.058   -55077.546    -74.93948    1533959.3    269.42401 
  179500    315.73185   -64417.665    -52879.33    -52681.47    8.8443693    1533959.3    291.56308 
  179600    324.02251    -64224.94   -52383.624   -51131.272    55.980485    1533959.3    295.30323 
  179700     321.2965   -63597.459   -51855.764   -48265.603    160.48125    1533959.3    289.39706 
  179800    318.98797   -62958.103   -51300.773    -45580.52    255.69692    1533959.3    286.76708 
  179900    313.12771   -62077.696   -50634.528     -41086.8    426.78613    1533959.3     290.2514 
  180000    321.11579   -61827.926   -50092.836   -38955.807    497.82834    1533959.3     286.5042 
  180100     316.5566   -61010.616    -49442.14   -35837.524    608.13018    1533959.3    253.30431 
  180200    316.99308   -60384.456   -48800.029   -32395.525    733.28596    1533959.3    297.24849 
  180300    323.25478   -60109.351   -48296.092   -30569.211    792.39662    1533959.3    293.76423 
  180400    322.10889   -59530.806   -47759.424   -28172.632    875.53514    1533959.3    281.17611 
  180500    317.63742   -58734.021   -47126.047   -24792.143    998.33182    1533959.3    273.89012 
  180600    319.17977   -58261.525   -46597.186   -22012.943    1098.9226    1533959.3    209.00073 
  180700    319.94557   -58310.384    -46618.06   -22221.357    1090.5395    1533959.3    281.05534 
  180800    335.87993   -59680.739   -47406.098   -29203.552    813.65895    1533959.3    280.98172 
  180900    333.14389   -60307.672   -48133.018   -32379.132    704.20315    1533959.3    279.77041 
  181000    332.46094   -61040.361   -48890.666   -36340.612    560.99094    1533959.3    272.09326 
  181100    323.08946   -61309.587    -49502.37   -38251.075    502.93607    1533959.3    275.71522 
  181200     328.1063   -62078.258   -50087.702   -41846.808    368.37029    1533959.3    296.49393 
  181300    328.52086   -62609.411   -50603.705   -44198.812    286.30049    1533959.3    290.00736 
  181400    330.28193   -63161.102   -51091.037   -47815.278    146.42737    1533959.3    292.39765 
  181500    329.81578   -63611.277   -51558.248    -49625.86    86.378299    1533959.3    294.50556 
  181600    328.59521   -63986.556   -51978.132   -50991.534    44.101228    1533959.3    266.10261 
  181700    330.60933   -64448.052   -52366.023   -54049.911   -75.270267    1533959.3     263.2784 
  181800     326.8827   -64714.896   -52769.056   -54803.153   -90.924716    1533959.3    288.02918 
  181900    322.26543   -64935.201   -53158.097   -56046.271    -129.1022    1533959.3    287.84693 
  182000    326.61113   -65431.844   -53495.928   -58409.769   -219.65005    1533959.3    295.97443 
  182100    328.85138   -65804.234   -53786.449   -60861.186   -316.24277    1533959.3    282.73106 
  182200    325.06108   -65961.291   -54082.021   -61281.292   -321.80946    1533959.3    294.31234 
  182300    328.31284   -66327.748   -54329.644   -62965.742   -386.03601    1533959.3    294.06411 
  182400    324.75902   -66488.329   -54620.098   -64553.397   -444.02127    1533959.3    301.63369 
  182500    329.10634   -66840.269   -54813.166   -65325.414   -469.90046    1533959.3    296.44636 
  182600    323.67865   -66964.464   -55135.715   -66256.813   -497.11624    1533959.3     190.0989 
  182700    329.67632   -67385.493    -55337.56   -67748.707   -554.78177    1533959.3    297.77248 
  182800    322.64204   -67469.227   -55678.361   -68320.538    -565.1089    1533959.3     293.9386 
  182900    328.62253   -67857.497   -55848.075   -69778.107   -622.67635    1533959.3    282.37341 
  183000    323.80172   -67988.007    -56154.76   -71128.092   -669.31218    1533959.3    270.46328 
  183100     331.9599   -68374.576   -56243.191    -72339.66   -719.51669    1533959.3    280.76711 
  183200    327.58794   -68517.159   -56545.545   -73472.168    -756.6248    1533959.3    299.70446 
  183300    323.96772   -68603.069   -56763.755    -73842.95   -763.44485    1533959.3    294.97842 
  183400      322.709   -68642.063   -56848.749   -73783.077   -756.96923    1533959.3    298.45305 
  183500    323.96643   -68683.607   -56844.341   -74050.159   -769.10494    1533959.3    284.70471 
  183600    300.18333   -68062.677   -57092.558    -72108.78   -671.22937    1533959.3      270.231 
  183700    303.18424   -67767.074   -56687.287   -70541.929   -619.30641    1533959.3    299.89754 
  183800    310.06019   -67522.502   -56191.436   -68895.965   -567.89604    1533959.3    299.79722 
  183900    320.50857   -67403.393   -55690.494   -67143.168   -511.93777    1533959.3     297.8025 
  184000    309.62221   -66615.945   -55300.884   -64224.712   -398.89761    1533959.3    290.10987 
  184100     316.6207   -66362.626   -54791.808   -62574.154   -347.87307    1533959.3    233.51284 
  184200    313.09515   -65731.878     -54289.9   -60262.863   -266.99317    1533959.3    304.24439 
  184300    305.53057   -64872.716   -53707.184   -55596.646   -84.459495    1533959.3    298.70003 
  184400    320.74886   -64855.937   -53134.256   -54818.656   -75.293164    1533959.3    288.97317 
  184500    319.06055   -64227.296   -52567.313    -51424.03    51.105107    1533959.3    300.07133 
  184600    313.41349    -63421.81   -51968.198   -47651.813    192.94363    1533959.3    214.69923 
  184700    315.89674   -62888.455   -51344.093   -45036.981    281.92972    1533959.3    297.84945 
  184800    316.29495   -62253.744    -50694.83    -42140.96    382.36041    1533959.3    293.09788 
  184900      321.083     -61829.7   -50095.808   -40086.315    447.42714    1533959.3    291.02596 
  185000    318.56169   -61053.051   -49411.299   -36046.312    597.41871    1533959.3    285.66766 
  185100    321.95566    -60582.35   -48816.567   -33710.965    675.22467    1533959.3    232.82235 
  185200    315.72762   -59683.922   -48145.741   -29861.003    817.33295    1533959.3    299.78801 
  185300    318.79277   -59292.058   -47641.862   -26720.779    935.17834    1533959.3    291.30489 
  185400    319.37155   -58849.324   -47177.976   -26400.533    928.75762    1533959.3    292.82655 
  185500    317.37851   -58194.117   -46595.605   -22652.461    1070.2653    1533959.3    287.79064 
  185600    338.88382   -58961.898    -46577.48   -24493.523    987.15913    1533959.3    240.29213 
  185700    335.77145   -59130.918   -46860.241   -26113.414    927.38905    1533959.3    283.82005 
  185800    337.03519   -59932.224   -47615.364   -30538.899    763.32282    1533959.3    285.62292 
  185900    331.07675   -60322.092   -48222.982   -33494.256    658.37821    1533959.3    282.57753 
  186000    328.93677   -60923.375   -48902.469   -35469.612    600.45251    1533959.3    284.48303 
  186100    329.30038   -61486.189   -49451.995   -38846.496    474.06878    1533959.3     269.1441 
  186200    327.54512    -61954.99   -49984.941   -40876.539    407.14818    1533959.3     297.3058 
  186300    331.69328   -62620.573   -50498.931   -43941.644    293.11258    1533959.3    289.65948 
  186400    327.83815   -62983.083   -51002.326   -46397.633     205.8311    1533959.3    277.21423 
  186500    331.84636   -63603.434   -51476.198   -48921.198    114.20921    1533959.3    273.11805 
  186600    328.75611   -63916.216   -51901.912   -51145.366    33.817817    1533959.3    291.44659 
  186700    329.59995    -64295.24   -52250.098   -52531.213   -12.565896    1533959.3    287.69451 
  186800    326.37002   -64553.257   -52626.152   -54255.109   -72.814802    1533959.3     285.0871 
  186900     328.0603   -64971.107   -52982.232   -55781.567   -125.13109    1533959.3    289.39527 
  187000    326.42685   -65266.732    -53337.55   -57711.382   -195.51153    1533959.3    294.46235 
  187100    326.64052   -65611.748   -53674.758   -59530.441    -261.7507    1533959.3    228.65143 
  187200    326.83289   -65892.931   -53948.911   -60171.701   -278.16045    1533959.3    293.09092 
  187300    325.80369   -66129.961   -54223.552   -61006.918   -303.21837    1533959.3    301.29481 
  187400    329.79916   -66549.027   -54496.606   -63377.133    -396.9621    1533959.3    297.62077 
  187500    327.90059   -66808.882   -54825.843   -64694.256   -441.12087    1533959.3    298.39424 
  187600    327.19364   -67085.018   -55127.814    -66290.63   -498.98105    1533959.3    257.87092 
  187700    330.52094   -67433.937   -55355.138   -67909.852   -561.19927    1533959.3    294.37906 
  187800    324.73297   -67548.122   -55680.843   -68660.026   -580.17316    1533959.3    299.51955 
  187900    329.65412   -67970.972    -55923.85   -70435.766   -648.68675    1533959.3    301.68381 
  188000    327.33574   -68155.752   -56193.356   -71048.682   -664.03728    1533959.3    298.14777 
  188100    330.73969   -68475.394   -56388.601   -72051.402   -700.13164    1533959.3    256.80534 
  188200    329.65656   -68724.807   -56677.597   -73949.123   -772.04213    1533959.3    300.61717 
  188300    329.31069   -68963.348   -56928.778   -75071.607   -810.98962    1533959.3     296.9114 
  188400     326.1923   -69107.828   -57187.218     -76258.4   -852.48724    1533959.3     297.0363 
  188500    325.49419   -69248.476   -57353.378    -76386.66    -850.7931    1533959.3    300.02561 
  188600    318.15183   -69150.832   -57524.059    -76150.24   -832.59557    1533959.3    266.16408 
  188700     305.5765   -68682.956   -57515.745   -74465.444   -757.65635    1533959.3    288.92221 
  188800    305.35825    -68311.66   -57152.425   -72776.929   -698.41975    1533959.3    286.83944 
  188900    312.96652   -68114.259   -56676.982   -71317.496   -654.43515    1533959.3    288.00525 
  189000    307.66254   -67530.178   -56286.733   -68214.349   -533.16781    1533959.3    280.37204 
  189100     315.0496   -67290.559   -55777.156   -66646.412   -485.85883    1533959.3    280.29653 
  189200    313.20956   -66769.482   -55323.323   -64468.701     -408.801    1533959.3    304.29626 
  189300    315.59254     -66345.9   -54812.655   -62554.471   -346.06138    1533959.3    302.07838 
  189400    316.83109    -65871.58   -54293.073   -58748.213   -199.14604    1533959.3     299.9887 
  189500    312.42064    -65182.87   -53765.541   -56428.654   -119.04191    1533959.3    300.21824 
  189600    318.87226   -64881.778   -53228.677   -54545.698   -58.871217    1533959.3    187.60107 
  189700    319.99334   -64384.576   -52690.506   -51907.163    35.015663    1533959.3     294.0639 
  189800     314.2172   -63580.576   -52097.593   -48160.895     175.9715    1533959.3    296.96164 
  189900    317.33886   -63087.591   -51490.528   -45560.025    265.09516    1533959.3    295.49422 
  190000    317.49147   -62491.746   -50889.106   -42697.306    366.17574    1533959.3    278.12082 
  190100    317.91799   -61920.056   -50301.829   -39490.243    483.28096    1533959.3    199.79298 
  190200    317.44037   -61314.061   -49713.288   -37115.689    563.11627    1533959.3    278.80319 
  190300    314.15607   -60551.076   -49070.327   -32699.479    731.78157    1533959.3    283.13052 
  190400    317.14447    -60087.55   -48497.591   -30775.403    792.18683    1533959.3    281.56721 
  190500    322.58064   -59813.211   -48024.588   -29711.971    818.57913    1533959.3    285.66357 
  190600    318.47023   -59052.001   -47413.592   -26541.951    932.96827    1533959.3    286.88574 
  190700    319.33696   -58518.226   -46848.143   -23841.062     1028.423    1533959.3    290.04507 
  190800    330.25205   -58666.536   -46597.564   -24225.316    1000.0458    1533959.3    288.83527 
  190900     323.4437   -58294.976   -46474.813   -22950.142    1051.5595    1533959.3    288.83288 
  191000    337.17922   -59563.399   -47241.275   -28569.144    834.64955    1533959.3    281.77907 
  191100    335.69642   -60265.995   -47998.059   -32727.817    682.58417    1533959.3    284.64733 
  191200     334.5844   -60963.586   -48736.289    -35591.34    587.58294    1533959.3    280.13235 
  191300    332.27998   -61536.469   -49393.387   -39219.959    454.75512    1533959.3    280.87992 
  191400    331.04183   -62083.718   -49985.883   -41208.682    392.34334    1533959.3    276.75073 
  191500    333.08281   -62711.079   -50538.657   -44572.566    266.68593    1533959.3    288.16612 
  191600    327.54389   -62886.588   -50916.584   -46821.809     183.0376    1533959.3    221.17249 
  191700    327.22554    -63185.87   -51227.501   -47605.459    161.90628    1533959.3    294.07339 
  191800    326.89907   -63574.504   -51628.066   -49390.096    100.03791    1533959.3     292.1091 
  191900    326.61504   -64004.183   -52068.124   -51307.822    33.985715    1533959.3    290.98861 
  192000    319.43665   -64114.449   -52440.722   -52223.326    9.7176602    1533959.3     233.4272 
  192100    329.82579   -64846.877   -52793.482   -54956.627   -96.693186    1533959.3    254.73163 
  192200    321.65168   -64919.516   -53164.842   -56301.422     -140.206    1533959.3     289.8216 
  192300    326.09638   -65364.953   -53447.849   -58453.594   -223.75821    1533959.3     291.6821 
  192400    325.63948   -65666.177   -53765.769   -59907.986   -274.55881    1533959.3    297.32687 
  192500    321.48873   -65834.108   -54085.388    -60862.68   -302.94685    1533959.3    293.62213 
  192600    326.61104   -66263.268   -54327.355   -62898.516    -383.1333    1533959.3    280.57103 
  192700     328.4658   -66600.233   -54596.538   -64094.748   -424.57268    1533959.3    295.35376 
  192800    325.77051   -66784.855   -54879.659   -65326.983   -466.99836    1533959.3    292.81878 
  192900    325.42716   -67024.212   -55131.564   -66143.826    -492.2512    1533959.3     290.4705 
  193000    326.50275   -67278.011   -55346.056   -67713.645   -552.83473    1533959.3    285.93095 
  193100    324.72297   -67451.094    -55584.18   -67934.721   -552.07268    1533959.3    268.33739 
  193200    322.10096   -67578.967   -55807.874   -68917.633   -586.00992    1533959.3    292.90732 
  193300    327.07417   -67943.901   -55991.064   -70456.459   -646.60728    1533959.3    289.98791 
  193400    328.53094   -68198.292   -56192.217   -71280.483   -674.44976    1533959.3    282.96071 
  193500    326.83364   -68345.859   -56401.811   -72600.459   -724.08415    1533959.3    277.40931 
  193600    327.74793    -68564.37    -56586.91   -73317.447   -747.85976    1533959.3    295.38871 
  193700    328.15997   -68793.318   -56800.801   -74685.322   -799.44319    1533959.3    305.24008 
  193800    321.37463   -68787.613   -57043.063   -74750.961   -791.54806    1533959.3    294.95041 
  193900    322.30015   -68911.939   -57133.567   -74722.101   -786.21244    1533959.3    303.59342 
  194000    315.81819   -68858.692   -57317.201   -74921.397   -786.91254    1533959.3    303.80629 
  194100    304.77617   -68327.679   -57189.716   -73408.121   -724.96731    1533959.3    173.93481 
  194200    306.52482   -67974.427    -56772.56   -71177.246   -643.89357    1533959.3    296.61282 
  194300    307.26322   -67531.339   -56302.487   -68341.435   -538.14438    1533959.3     246.1368 
  194400    306.56551   -67018.358   -55815.003   -66181.768    -463.3973    1533959.3    294.24936 
  194500      306.501   -66476.865   -55275.868   -63043.507   -347.21566    1533959.3    285.47362 
  194600    310.65552   -66051.134   -54698.312   -60854.305   -275.17466    1533959.3    265.49555 
  194700    308.44454   -65387.138   -54115.115   -58032.108   -175.09072    1533959.3    256.23224 
  194800    312.49974   -64935.824   -53515.605   -54716.137    -53.66414    1533959.3    261.35943 
  194900    313.88454    -64348.92   -52878.094   -51593.244    57.433167    1533959.3    273.27109 
  195000    317.37358   -63859.295   -52260.963   -49654.488    116.51019    1533959.3    267.82285 
  195100    319.05802   -63275.226   -51615.336   -46570.229    225.51773    1533959.3    284.38099 
  195200    317.47024   -62554.298   -50952.433   -42476.164    378.89161    1533959.3    288.70266 
  195300    311.92842   -61584.944   -50185.604   -38974.242    501.15103    1533959.3    291.65147 
  195400      314.302   -61004.061   -49517.978   -36807.198    568.17546    1533959.3    289.12855 
  195500    320.59434   -60621.614    -48905.58   -33750.149    677.45202    1533959.3    297.38443 
  195600    319.48237   -59949.044   -48273.647   -31402.228    754.15723    1533959.3    252.67074 
  195700    321.06959    -59462.32   -47728.918   -28300.327    868.46349    1533959.3    296.52307 
  195800    321.51283   -58893.114   -47143.514    -25760.84    955.81158    1533959.3    290.94884 
  195900    320.31116   -58246.716    -46541.03   -23826.085    1015.3645    1533959.3    281.82981 
  196000    330.42793   -58453.814   -46378.414   -23477.086    1023.6958    1533959.3    280.05641 
  196100    335.85428   -59173.923   -46900.219   -26808.443    898.10805    1533959.3    279.07551 
  196200     333.1417   -59896.472   -47721.898   -30836.361    754.78829    1533959.3    284.29676 
  196300    330.88118   -60579.531   -48487.567   -34546.575    623.16629    1533959.3    266.85024 
  196400    332.20365    -61339.68   -49199.387   -37992.186    500.96508    1533959.3    287.67063 
  196500    329.12862   -61820.374   -49792.457   -40329.844    422.98145    1533959.3    281.86712 
  196600    326.54898   -62279.952   -50346.307   -43421.244    309.55231    1533959.3      291.689 
  196700    323.77932    -62630.66   -50798.232   -45256.561    247.71425    1533959.3    291.60808 
  196800    326.57083   -63179.823   -51245.379   -47926.175    148.36936    1533959.3    286.73002 
  196900    329.34031   -63721.025   -51685.372   -50386.882    58.042853    1533959.3    289.48934 
  197000    323.48695   -63915.599   -52093.855   -51500.328    26.530816    1533959.3    281.08189 
  197100    325.18406   -64313.998   -52430.233   -53214.408   -35.052831    1533959.3    241.34018 
  197200    328.85064   -64781.495   -52763.737   -55269.718   -112.01808    1533959.3    290.56246 
  197300    325.40214   -64917.852   -53026.119   -56463.162   -153.63682    1533959.3    304.33159 
  197400    325.72368   -65179.348   -53275.863   -57295.605   -179.68359    1533959.3    297.84691 
  197500    325.94535   -65487.377   -53575.792   -58885.168    -237.3306    1533959.3    300.96555 
  197600    322.39068   -65660.677   -53878.996   -60432.089   -292.92509    1533959.3    158.30298 
  197700    324.85175    -65983.05    -54111.43    -60865.98   -301.93033    1533959.3    293.52452 
  197800    327.73774   -66327.794   -54350.706   -63164.193   -393.96533    1533959.3     292.4319 
  197900    323.92202   -66462.289   -54624.646   -63505.122    -396.9598    1533959.3    292.68944 
  198000    328.24428   -66816.791   -54821.192    -65705.81    -486.5455    1533959.3    286.08951 
  198100    321.23966   -66823.669   -55084.052   -66230.059   -498.22966    1533959.3    167.72359 
  198200    327.01367    -67187.08   -55236.453   -67033.936   -527.35083    1533959.3    224.83586 
  198300    327.18791     -67404.6   -55447.605   -68100.064   -565.56849    1533959.3    289.41544 
  198400    324.08482   -67437.771   -55594.179   -68292.382    -567.6133    1533959.3    283.94494 
  198500    325.08891   -67656.351   -55776.064   -69566.649   -616.44304    1533959.3    288.66272 
  198600    330.68996   -68014.419   -55929.443   -70423.595   -647.89269    1533959.3    295.05146 
  198700    329.17365   -68179.528   -56149.966   -71435.577   -683.27115    1533959.3    303.27665 
  198800    322.79006   -68206.081   -56409.805   -71743.752   -685.43176    1533959.3    288.21919 
  198900    323.96853   -68435.692   -56596.349   -72867.187   -727.31104    1533959.3    281.33114 
  199000    326.32101   -68704.793   -56779.479   -73890.475   -764.86637    1533959.3    284.49268 
  199100    326.90803   -68927.062   -56980.296   -74854.949   -799.00206    1533959.3    234.18874 
  199200    325.34755   -69065.614   -57175.875   -75213.368   -806.28106    1533959.3    316.23859 
  199300    321.81978   -69051.819   -57291.002   -75917.838   -832.62484    1533959.3    301.20394 
  199400    306.46846   -68472.094   -57272.287   -73401.365   -720.97436    1533959.3    298.54397 
  199500    303.41123   -68028.088   -56940.007   -70760.877   -617.79683    1533959.3    292.07045 
  199600    306.71225   -67674.871   -56466.154   -69031.661   -561.68171    1533959.3    208.65461 
  199700    309.02757   -67251.281   -55957.951   -66548.475   -473.39942    1533959.3    308.56284 
  199800    309.01717    -66710.41    -55417.46   -64218.606   -393.41369    1533959.3    307.34257 
  199900    310.40233    -66177.41   -54833.841   -61902.838   -315.98618    1533959.3    303.03475 
  200000    311.78656     -65619.2   -54225.044   -59205.133   -222.61135    1533959.3    264.18266 
  200100    310.73075   -64937.721    -53582.15   -55419.274   -82.119975    1533959.3     195.0147 
  200200     312.7875   -64364.058   -52933.323   -52263.974    29.920066    1533959.3    298.36303 
  200300    309.64353   -63551.505   -52235.665   -47191.829    225.46089    1533959.3    295.69003 
  200400    313.19894   -62991.913   -51546.142   -45303.409    279.05191    1533959.3    296.51238 
  200500    312.14061   -62250.841   -50843.747   -41686.764    409.31973    1533959.3    292.22857 
  200600    311.77633    -61519.39   -50125.607    -38364.19    525.73869    1533959.3    288.81359 
  200700     318.7853   -61129.254   -49479.331   -36082.193    598.85584    1533959.3    284.53475 
  200800    316.78815   -60381.209   -48804.271   -32836.069    713.78315    1533959.3    281.69334 
  200900    317.21596   -59769.402    -48176.83   -28921.538      860.717    1533959.3    281.16028 
  201000    314.12305   -58990.673   -47511.131   -25800.887    970.45402    1533959.3    277.44712 
  201100     319.5727   -58836.746   -47158.047   -25380.102    973.48031    1533959.3     289.5529 
  201200    321.17248   -58492.328   -46755.166   -23595.753    1035.2323    1533959.3    297.71393 
  201300    335.47353   -58927.105   -46667.315   -25643.406    939.77469    1533959.3    293.56849 
  201400    322.46384   -58428.861   -46644.507   -23096.953    1052.5823    1533959.3    291.85827 
  201500     336.8144   -59839.352    -47530.56   -30378.204    766.71519    1533959.3    284.30986 
  201600    334.10199   -60542.313   -48332.645   -33428.834     666.2046    1533959.3    267.74472 
  201700    328.98113   -61046.697   -49024.169    -36400.52     564.2807    1533959.3    280.66565 
  201800    326.46507   -61563.029    -49632.45     -37974.3    521.12262    1533959.3    286.42789 
  201900    329.95905   -62298.332   -50240.067   -42013.343    367.73691    1533959.3    283.96743 
  202000    320.05946   -62390.563   -50694.076   -43191.193      335.381    1533959.3    279.71406 
  202100    321.24977   -62836.451   -51096.464   -45659.842    243.01855    1533959.3    282.83344 
  202200     324.1678   -63333.319   -51486.693   -47661.285    170.99685    1533959.3    301.31906 
  202300    327.80323   -63866.087   -51886.606   -50182.404    76.178314    1533959.3    295.86941 
  202400    326.72995   -64202.282   -52262.023   -51798.598    20.715268    1533959.3    296.59331 
  202500     323.4723   -64397.085   -52575.877   -52995.033   -18.736405    1533959.3    299.75394 
  202600    322.19411   -64649.079   -52874.582   -54014.636   -50.960738    1533959.3    218.09677 
  202700    326.96131   -65049.573    -53100.86   -55983.551   -128.85713    1533959.3    285.77315 
  202800    331.11721   -65375.924   -53275.335   -57336.511    -181.5357    1533959.3    285.73227 
  202900    328.37772   -65604.872   -53604.396   -58871.631   -235.44687    1533959.3    286.24825 
  203000    323.31299    -65707.65   -53892.264   -60009.814    -273.4562    1533959.3    281.69334 
  203100    322.13162   -65901.576   -54129.363   -60295.473   -275.62686    1533959.3    285.22862 
  203200    326.42826   -66246.872   -54317.639   -61988.159   -342.87444    1533959.3    304.78051 
  203300    323.72942   -66425.493   -54594.888   -63270.096   -387.78423    1533959.3    301.69444 
  203400    324.33279   -66663.919   -54811.264    -63904.36   -406.46397    1533959.3    302.58746 
  203500    324.71612   -66916.939   -55050.276   -65114.641   -449.87997    1533959.3     301.2775 
  203600     325.9893   -67160.645   -55247.454   -66399.661   -498.50684    1533959.3    197.06454 
  203700    328.50374   -67451.256   -55446.175   -67885.802   -556.05482    1533959.3    294.83472 
  203800    322.99352   -67518.428   -55714.717   -68193.493   -557.80482    1533959.3    304.82326 
  203900    327.42366   -67790.938   -55825.328   -69361.081     -605.052    1533959.3    300.46621 
  204000    327.07134   -68010.578   -56057.844   -70425.797    -642.2516    1533959.3    297.36777 
  204100    332.33392   -68345.924    -56200.87   -71423.374   -680.45024    1533959.3    252.80293 
  204200    325.79758   -68430.695   -56524.511   -71991.984   -691.40044    1533959.3    302.37608 
  204300    324.14756    -68598.02   -56752.135   -72851.972   -719.66731    1533959.3    295.07221 
  204400    326.34335   -68900.302   -56974.172   -74458.145   -781.53852    1533959.3    292.01697 
  204500    321.33589   -68992.842   -57249.708   -75633.799   -821.77406    1533959.3    295.07138 
  204600    317.52558   -69047.783   -57443.896    -76068.41   -832.52104    1533959.3    269.79991 
  204700    307.82087   -68569.744   -57320.513   -73490.296   -722.79386    1533959.3    290.00476 
  204800    306.58263   -68144.035   -56940.056    -71164.99   -635.85858    1533959.3    276.15544 
  204900    307.84138   -67720.148   -56470.168    -69290.87   -573.08902    1533959.3    281.34378 
  205000    305.26185   -67142.506   -55986.794   -66405.379   -465.71371    1533959.3    284.11824 
  205100    307.62297   -66667.092   -55425.093   -63837.641   -376.04327    1533959.3    248.98602 
  205200    313.90349   -66300.341   -54828.822     -61862.1    -314.3895    1533959.3     270.3024 
  205300    309.16305   -65544.902   -54246.621   -57266.269   -134.97912    1533959.3    270.72182 
  205400    312.14633   -65029.508   -53622.205   -55707.652   -93.220088    1533959.3    266.69498 
  205500    311.83714    -64349.44   -52953.436   -51590.009    60.945566    1533959.3    270.44497 
  205600     310.7007   -63581.941   -52227.468   -48674.726    158.80857    1533959.3     266.6092 
  205700    312.57657   -62916.587   -51493.561    -44766.91     300.6832    1533959.3    276.27895 
  205800    316.64079   -62381.162    -50809.61   -41767.921    404.16602    1533959.3    276.88867 
  205900    313.54936   -61471.316   -50012.738   -37840.621     544.0971    1533959.3    273.60069 
  206000    321.05701   -61153.549   -49420.607   -35814.855    608.18094    1533959.3    272.58591 
  206100    316.96269   -60300.086    -48716.77   -32002.616    747.12741    1533959.3    278.92667 
  206200     322.6257     -60007.1    -48216.83   -30890.455    774.49389    1533959.3    274.65218 
  206300    318.29836   -59176.133   -47544.005   -26238.561    952.35936    1533959.3    285.97404 
  206400    320.24815   -58961.909   -47258.526   -25825.748    958.05125    1533959.3    279.74298 
  206500    321.08679   -58792.063   -47058.033   -24564.215      1005.48    1533959.3    288.70604 
  206600    336.48394   -59336.766   -47040.051   -27488.062    873.97944    1533959.3    281.78551 
  206700    317.88017   -58532.345   -46915.499   -24468.872    1003.3706    1533959.3    276.82964 
  206800    340.88758   -60026.914    -47569.27   -30753.407    751.67382    1533959.3    281.71321 
  206900    331.76373   -60438.794   -48314.577   -33004.837     684.3497    1533959.3    290.35568 
  207000    329.35325   -61066.258   -49030.132    -36313.31    568.44555    1533959.3    286.19278 
  207100    327.13103   -61622.704   -49667.789    -39402.06    458.88096    1533959.3    284.34456 
  207200     326.5557   -62126.268   -50192.377   -42122.205    360.73898    1533959.3    308.49249 
  207300    325.73429   -62545.565   -50641.692   -44438.185    277.29855    1533959.3    300.74823 
  207400    327.59251   -63033.198   -51061.418   -46941.227    184.17371    1533959.3    303.16814 
  207500    326.38175   -63352.675   -51425.142    -48823.79    116.28117    1533959.3    284.33241 
  207600    309.97457   -62864.887    -51536.95   -46638.441    218.96473    1533959.3    260.04076 
  207700    305.72764    -62021.54   -50848.806   -42082.619    391.85103    1533959.3    288.08972 
  207800    308.48518    -61349.93   -50076.423   -38792.137    504.41074    1533959.3    279.42653 
  207900     316.1065   -60911.839   -49359.812   -36562.223    572.05586    1533959.3    282.94773 
  208000    317.37077   -60224.868   -48626.639   -33355.548    682.62205    1533959.3    283.24696 
  208100    319.09043   -59617.738   -47956.664   -29869.151    808.51695    1533959.3    283.87057 
  208200    324.42556    -59257.01   -47400.966   -28178.294    859.25887    1533959.3    304.09748 
  208300    312.58382   -58257.507   -46834.215   -23090.611    1061.3458    1533959.3    304.51873 
  208400     319.8866   -58306.569   -46616.399   -23589.748    1029.2978    1533959.3    301.38098 
  208500    325.31153   -58388.598   -46500.175   -23966.932    1007.2423    1533959.3    298.56268 
  208600    341.12446   -59539.067   -47072.766   -28971.142     809.1477    1533959.3    240.51411 
  208700    338.81137   -60302.138   -47920.367   -33066.341    663.97918    1533959.3    294.76179 
  208800    331.70517    -60750.22   -48628.144   -35514.785    586.17087    1533959.3    295.56772 
  208900    327.09933   -61188.894   -49235.137   -37800.753    511.12019    1533959.3     295.1802 
  209000    327.41095   -61758.788   -49793.642   -41037.752    391.39077    1533959.3    292.10829 
  209100    325.75333    -62151.87   -50247.302   -42359.813      352.573    1533959.3    240.33082 
  209200     315.7208   -62031.142    -50493.21   -43030.892    333.56771    1533959.3    268.37568 
  209300    308.75337   -61691.237   -50407.929   -41480.668    399.05105    1533959.3    287.05519 
  209400    310.00781   -60991.477   -49662.325   -37567.206    540.65522    1533959.3    295.57814 
  209500    315.89977   -60501.354   -48956.882   -35163.062    616.58763    1533959.3    291.41783 
  209600    316.73467   -59786.629   -48211.645   -31381.652    752.30547    1533959.3    293.18988 
  209700    320.91713   -59345.537   -47617.706    -29171.39    824.55555    1533959.3    285.65054 
  209800    317.57524   -58610.325   -47004.623   -25157.182    976.58678    1533959.3     282.2858 
  209900     324.6092   -58359.199   -46496.443   -23593.438    1023.7708    1533959.3    278.90886 
  210000     337.7137   -58639.289   -46297.633   -25406.033    933.86041    1533959.3    279.33739 
  210100    339.12959   -59053.307   -46659.907   -26851.168    885.45624    1533959.3    241.32212 
  210200    334.30159   -59664.005   -47447.043   -29355.593    808.69294    1533959.3    301.54977 
  210300    330.47342   -60286.492    -48209.43    -33409.67    661.55343    1533959.3    301.33464 
  210400    328.44323   -60880.982   -48878.112   -36648.577     546.6637    1533959.3    297.73422 
  210500    326.33735   -61367.059   -49441.149   -37976.093    512.49121    1533959.3    286.31977 
  210600    328.69907   -62008.323   -49996.104   -42067.439    354.41356    1533959.3    282.46354 
  210700    331.64688   -62630.215   -50510.269    -44344.69     275.6031    1533959.3    286.71611 
  210800     329.3426   -63087.257    -51051.52   -47250.902    169.88872    1533959.3    290.29941 
  210900    329.94004   -63695.418   -51637.848   -49852.787    79.792719    1533959.3    284.23626 
  211000    323.17535   -63928.632   -52118.276   -51335.222    35.002739    1533959.3    292.34894 
  211100     320.8085    -64148.64   -52424.779   -52863.743   -19.621792    1533959.3    268.49886 
  211200    320.95793    -64396.37   -52667.049   -54210.189   -68.978812    1533959.3    291.26322 
  211300    325.15515   -64740.365   -52857.658   -55596.655   -122.43396    1533959.3    276.72845 
  211400    309.53171   -63891.218   -52579.465   -51510.587    47.779161    1533959.3    293.93366 
  211500    314.42526   -63414.782   -51924.196   -49308.643    116.91594    1533959.3    297.07248 
  211600    311.90473   -62673.415    -51274.94     -45566.4    255.17337    1533959.3    292.81306 
  211700    316.33354   -62282.654    -50722.33   -43227.283    335.03074    1533959.3     296.2305 
  211800    318.23188    -61804.62   -50174.921   -41240.612    399.36617    1533959.3    291.20215 
  211900    315.46167    -60961.31   -49432.848    -37131.22    549.88623    1533959.3    292.23264 
  212000    316.91466   -60262.823   -48681.262   -33527.361    677.38367    1533959.3    290.99386 
  212100    316.41303    -59507.94   -47944.711   -29862.522    808.27898    1533959.3    277.20104 
  212200    315.53472   -58764.013   -47232.882   -26458.741    928.60998    1533959.3    287.72253 
  212300    322.26066    -58462.93   -46686.001    -24349.54     998.4461    1533959.3    285.53717 
  212400    323.99118    -58081.62   -46241.449    -23009.46    1038.4765    1533959.3    291.17426 
  212500    338.09526   -59043.198   -46687.598   -27691.385    849.13608    1533959.3    287.51426 
  212600    336.91745   -59762.712   -47450.154   -30711.356    748.22904    1533959.3    260.79212 
  212700    327.58236   -60109.295   -48137.886   -32448.264    701.33054    1533959.3    291.63971 
  212800    328.08244   -60830.554   -48840.869   -36845.506    536.19612    1533959.3    290.51778 
  212900    329.14228   -61479.889   -49451.473   -39431.546    447.89359    1533959.3    290.34061 
  213000    322.30986   -61719.852   -49941.124   -40692.507    413.41582    1533959.3    283.41941 
  213100    329.01886   -62515.143   -50491.237   -44488.849    268.30846    1533959.3    284.90429 
  213200    329.98765   -63101.641   -51042.331   -47356.456    164.75965    1533959.3    283.21483 
  213300    330.17551   -63620.406   -51554.231   -49494.428    92.073791    1533959.3    292.41029 
  213400    326.51002       -63932   -51999.779   -52114.638   -5.1342299    1533959.3     299.7548 
  213500    327.86138   -64366.201   -52384.595   -53277.096   -39.895025    1533959.3    298.55205 
  213600    328.62223   -64829.458   -52820.047   -56043.262   -144.07859    1533959.3    295.85021 
  213700     324.3564   -65096.546   -53243.028   -57529.798   -191.61983    1533959.3    289.56629 
  213800    326.46519   -65501.427   -53570.844   -59329.108   -257.39601    1533959.3    292.18419 
  213900    322.98383    -65626.13   -53822.773   -59864.935   -270.08638    1533959.3    291.88711 
  214000    306.29064   -65198.049    -54004.74   -58482.828   -200.17179    1533959.3    289.16861 
  214100    308.05142   -64792.112   -53534.455   -56625.427   -138.16731    1533959.3     247.9501 
  214200    311.49376   -64321.885    -52938.43     -53643.6   -31.521319    1533959.3     286.0462 
  214300     307.4852   -63537.315   -52300.351   -50199.858    93.892631    1533959.3    299.99578 
  214400    313.60412   -63125.902   -51665.324   -46895.527    213.21128    1533959.3    301.03877 
  214500     316.9833   -62656.184   -51072.115   -45085.029    267.62443    1533959.3    297.24659 
  214600    316.25463    -62030.76    -50473.32   -41522.732    400.09383    1533959.3     223.6237 
  214700    317.62184   -61475.335   -49867.931   -38672.286    500.44846    1533959.3    295.01825 
  214800    311.86509   -60451.683   -49054.657   -33737.463    684.68291    1533959.3    292.82655 
  214900    315.37053   -59931.285   -48406.153   -30974.152     779.2154    1533959.3    288.88878 
  215000    321.94425   -59570.978   -47805.612   -29267.202     828.6722    1533959.3    283.56082 
  215100     320.0694   -58834.809   -47137.959   -25543.644    965.27201    1533959.3    243.62854 
  215200    322.07987   -58371.625   -46601.302   -24204.743    1001.1326    1533959.3    291.85909 
  215300    323.04394   -57985.666   -46180.112   -21982.054      1081.66    1533959.3    291.85584 
  215400    323.56525   -58114.145    -46289.54   -23062.632    1038.2494    1533959.3    291.58011 
  215500    326.62088   -58977.108   -47040.836   -27811.595    859.55252    1533959.3    290.53288 
  215600    334.19016   -60124.245   -47911.355   -32426.749    692.16629    1533959.3    293.58493 
  215700    330.74721   -60624.759   -48537.691   -35802.038    569.28726    1533959.3       289.94 
  215800    328.86161   -61101.692   -49083.533   -37411.532    521.74173    1533959.3    287.66787 
  215900    329.46522     -61630.6   -49590.382   -40323.213    414.24508    1533959.3    287.34644 
  216000    326.43187   -62011.073   -50081.708   -42573.111    335.63642    1533959.3    286.15412 
  216100     328.9567   -62577.896   -50556.262   -44998.261    248.44419    1533959.3    266.49334 
  216200    331.36892   -63136.433   -51026.645    -47412.61     161.5484    1533959.3    293.18721 
  216300    327.61504   -63467.871   -51495.267   -49901.879    71.224882    1533959.3    290.56427 
  216400     327.6914   -63860.113   -51884.719   -50812.732    47.918114    1533959.3    279.77265 
  216500    326.40773   -64181.976   -52253.493   -53199.082   -42.268088    1533959.3      287.491 
  216600    324.07887    -64398.33   -52554.955   -54054.648   -67.036695    1533959.3    300.08679 
  216700    327.67237   -64807.581   -52832.882   -55646.977   -125.79082    1533959.3    298.19588 
  216800    330.78817   -65256.433   -53167.868   -57556.622   -196.17857    1533959.3      288.651 
  216900     329.2898   -65553.663   -53519.856   -59135.658   -251.02795    1533959.3    295.19079 
  217000    328.13133   -65926.797   -53935.326   -61267.664   -327.75759    1533959.3     293.5048 
  217100    320.67956   -66020.082   -54300.934   -62248.374   -355.25282    1533959.3    248.17838 
  217200     323.3659    -66339.38    -54522.06   -63640.441   -407.59419    1533959.3    256.48451 
  217300    324.35488   -66567.568   -54714.106   -64483.098   -436.67669    1533959.3    275.73806 
  217400    304.09359    -66015.43   -54902.412   -62339.509   -332.44035    1533959.3    278.62613 
  217500    311.27351   -65818.683   -54443.277   -60894.375   -288.36592    1533959.3    302.03901 
  217600    310.99867   -65299.055   -53933.692   -58452.338   -201.98475    1533959.3    247.72706 
  217700    313.95344   -64899.981   -53426.637   -55659.995   -99.831764    1533959.3    285.18072 
  217800    315.62063   -64437.852   -52903.581   -53893.292   -44.240386    1533959.3     250.9385 
  217900    315.82601   -63873.987   -52332.211   -50403.089    86.232283    1533959.3     262.7312 
  218000    310.41166   -63021.161   -51677.251   -46358.431    237.75276    1533959.3    252.46345 
  218100    313.57765   -62492.197   -51032.586   -43897.603    318.93578    1533959.3    260.99513 
  218200    314.58477   -61881.337   -50384.921   -41004.668    419.29998    1533959.3    283.74171 
  218300    317.63362    -61340.76   -49732.925   -38013.828    523.84693    1533959.3    286.78198 
  218400     316.5581   -60611.424   -49042.893   -34423.088    653.50943    1533959.3    283.94821 
  218500     316.7254   -59891.261   -48316.617   -30570.451    793.25864    1533959.3    289.61068 
  218600    321.91293   -59455.709   -47691.487    -28724.81    847.81583    1533959.3    168.10683 
  218700    321.10781   -58788.403   -47053.604    -25593.24    959.28437    1533959.3    288.19939 
  218800    323.66047   -58441.297   -46613.212   -23837.404    1018.0851    1533959.3    290.74918 
  218900    322.90136   -58271.314   -46470.971   -22593.112    1067.3471    1533959.3    289.51112 
  219000    337.54341   -59297.489   -46962.056   -28653.903    818.37963    1533959.3    284.41879 
  219100    332.89641   -59927.771   -47762.161   -31715.216    717.30302    1533959.3     211.4219 
  219200    327.75892    -60441.12   -48463.259   -34075.036    643.15761    1533959.3    248.79329 
  219300    330.24641   -61240.124   -49171.358   -38257.941    487.83283    1533959.3    298.90289 
  219400     327.1922   -61562.723   -49605.572   -39614.605    446.59908    1533959.3    293.40482 
  219500    328.94083   -62111.683   -50090.629   -42335.197    346.67003    1533959.3    288.01514 
  219600      325.626   -62491.273   -50591.359   -44417.498    275.97331    1533959.3    292.42742 
  219700    326.29317   -62999.063   -51074.767    -47055.94    179.64273    1533959.3    291.49682 
  219800    328.59193   -63534.036   -51525.732   -50495.773    46.039478    1533959.3     295.1829 
  219900    323.09235   -63722.599   -51915.276   -50089.207    81.625812    1533959.3    298.39254 
  220000    327.07816   -64215.384   -52262.401   -53206.004   -42.179349    1533959.3     273.0137 
  220100    327.51347   -64546.899   -52578.008   -54165.263   -70.950766    1533959.3    243.04647 
  220200    328.46276   -64956.749   -52953.166   -56374.498   -152.93454    1533959.3    289.48415 
  220300    327.72277    -65166.09    -53189.55   -58136.878   -221.14695    1533959.3    295.16026 
  220400    328.06219   -65459.443   -53470.499   -58428.422   -221.62057    1533959.3    264.56427 
  220500    328.21984   -65833.021   -53838.316   -60749.022   -308.91055    1533959.3    292.49349 
  220600    326.49612   -66092.881   -54161.168   -62064.809   -353.29497    1533959.3    279.26802 
  220700    337.16669   -66715.689   -54394.023   -64244.503   -440.31924    1533959.3    282.06748 
  220800    330.88775   -66937.687   -54845.483   -65667.364   -483.74113    1533959.3    288.75275 
  220900    322.56162   -67013.911   -55225.983   -66890.255   -521.39626    1533959.3    286.95483 
  221000    323.15696   -67199.361   -55389.677   -67460.269    -539.5589    1533959.3    291.50006 
  221100    324.82198   -67458.159   -55587.627    -67886.45   -549.76088    1533959.3    275.88733 
  221200    322.02292   -67589.919   -55821.677   -69092.731   -593.21984    1533959.3     267.8208 
  221300    325.78727    -67842.84   -55937.032   -69473.863   -605.10019    1533959.3    289.41883 
  221400    319.85095   -67907.146   -56218.279   -70411.762   -634.45272    1533959.3    289.28728 
  221500    328.30157   -68312.788   -56315.095   -71897.186   -696.52387    1533959.3    307.94641 
  221600    323.35069   -68415.835   -56599.071   -72186.449   -696.76023    1533959.3    192.06096 
  221700    324.75804   -68644.167   -56775.972   -73811.697   -761.50173    1533959.3    305.88699 
  221800    327.40674    -68926.38   -56961.389   -74473.082   -782.77764    1533959.3    305.95259 
  221900    320.99961   -68962.479   -57231.634   -75081.821   -797.90839    1533959.3     305.0343 
  222000    317.75717   -68980.324   -57367.974   -75590.569   -814.55516    1533959.3      304.736 
  222100    304.14711   -68484.786   -57369.811   -73872.145   -737.65899    1533959.3    209.49031 
  222200    313.83528   -68411.355   -56942.329    -72448.85   -693.14586    1533959.3    248.18147 
  222300    309.76683    -67885.51   -56565.165   -70262.358   -612.26844    1533959.3    286.13694 
  222400    305.59795   -67289.511   -56121.516    -67882.28   -525.70947    1533959.3    289.39367 
  222500    313.20306   -67002.954   -55557.032   -65785.938   -457.23496    1533959.3    273.80841 
  222600    314.71394   -66540.208   -55039.072   -63167.117   -363.32593    1533959.3    281.46178 
  222700    322.81898    -66359.32   -54561.988   -62035.114   -334.05084    1533959.3     261.0372 
  222800    315.58525   -65773.913   -54240.934   -58615.904   -195.56235    1533959.3     276.8205 
  222900    318.34966   -65448.899   -53814.896   -56591.475   -124.11386    1533959.3    288.20929 
  223000    315.31171   -64888.814   -53365.832   -54254.958   -39.744174    1533959.3    283.58421 
  223100    315.06116    -64373.99   -52860.164   -51777.329    48.403024    1533959.3    256.59905 
  223200    316.34013   -63872.885    -52312.32   -49221.965    138.13975    1533959.3    279.85665 
  223300    314.86515   -63223.727   -51717.065   -46018.186    254.74151    1533959.3    293.20607 
  223400     314.6756   -62572.133   -51072.398   -42799.466    369.80239    1533959.3    272.27254 
  223500     315.7151   -62002.773    -50465.05   -40028.674    466.50896    1533959.3    277.07359 
  223600    317.95951   -61492.898   -49873.153   -37315.289    561.34008    1533959.3    272.22889 
  223700    315.21781   -60717.899   -49198.349   -33715.873    692.07104    1533959.3    267.11671 
  223800    319.44586   -60250.302   -48576.238   -31253.775      774.319    1533959.3      268.574 
  223900    317.63615   -59535.001   -47927.073    -28061.79     887.9838    1533959.3    274.51861 
  224000    321.13789   -59180.317    -47444.42    -26510.57      935.749    1533959.3    283.01188 
  224100     317.9929   -58450.083   -46829.118   -22876.758    1070.6773    1533959.3    261.87067 
  224200    323.80433   -58275.082    -46441.74   -22110.237    1087.6251    1533959.3    269.61295 
  224300    336.28667     -58913.9   -46624.394   -24542.809    987.05309    1533959.3    286.76884 
  224400    338.71497    -59816.77   -47438.522   -29532.809    800.39046    1533959.3    285.58694 
  224500    324.69291   -59955.981   -48090.166   -30206.344    799.41193    1533959.3    290.45119 
  224600    333.24991   -61101.268   -48922.739   -36278.882    565.18399    1533959.3    286.41068 
  224700     324.8965    -61352.61   -49479.355    -38184.78    504.87074    1533959.3    284.89849 
  224800    327.94586    -62032.52   -50047.826   -41313.702    390.41784    1533959.3    282.98076 
  224900    329.35631    -62593.54   -50557.303   -44451.968    272.91019    1533959.3    287.68701 
  225000    327.77279   -63043.253   -51064.885   -45733.949    238.29433    1533959.3    287.59607 
  225100    322.87492   -63343.084   -51543.707   -48206.514    149.17347    1533959.3    274.40331 
  225200    324.22723   -63785.306   -51936.509   -50439.169    66.931528    1533959.3    291.55031 
  225300    320.51522   -64040.626   -52327.483   -51814.327    22.938244    1533959.3    295.62793 
  225400    324.84574   -64551.465   -52680.065    -54154.89   -65.925092    1533959.3    286.98036 
  225500     321.4716   -64762.062   -53013.969   -56055.016   -135.93568    1533959.3     291.5799 
  225600    329.21229   -65362.957   -53331.982   -58190.704   -217.18625    1533959.3    243.48852 
  225700    331.26798   -65814.758   -53708.659   -60203.473   -290.32002    1533959.3    289.95003 
  225800    323.74218   -65946.225   -54115.154   -60992.155   -307.40389    1533959.3     291.1209 
  225900    328.89797   -66471.597   -54452.109    -63492.62    -404.1134    1533959.3    284.13537 
  226000    329.08654   -66812.556   -54786.177   -65507.296   -479.23707    1533959.3    291.00214 
  226100    325.37938   -67026.101   -55135.199   -65526.396   -464.48948    1533959.3    226.93135 
  226200    324.73361   -67246.407   -55379.105   -67157.442   -526.49503    1533959.3     297.0769 
  226300    322.07785   -67369.243   -55598.994   -68079.825   -557.89667    1533959.3    294.62803 
  226400     323.5216    -67580.13    -55757.12   -68877.506     -586.485    1533959.3    290.53972 
  226500    322.09544   -67738.334   -55967.443   -69856.874    -620.8615    1533959.3    294.33588 
  226600    323.86837   -67973.355   -56137.672   -70655.293   -648.94176    1533959.3    250.28219 
  226700    325.67416   -68195.306   -56293.631   -71148.475   -664.01571    1533959.3     287.4646 
  226800    327.70266   -68451.143   -56475.338   -72422.295   -712.83351    1533959.3    287.35293 
  226900    325.92761   -68608.246   -56697.309   -73428.132    -747.8725    1533959.3    288.05747 
  227000    331.27912   -68944.911   -56838.405   -74573.638   -792.76995    1533959.3    287.25729 
  227100    326.22215   -69029.645   -57107.944   -74985.433   -799.12881    1533959.3    288.01257 
  227200    321.77775   -69072.759   -57313.478   -75542.889   -814.85983    1533959.3    276.95997 
  227300    321.78872   -69153.924   -57394.241   -75777.292   -821.72756    1533959.3    285.78698 
  227400    318.66738   -69127.598   -57481.985   -75819.764   -819.70393    1533959.3    286.45508 
  227500    322.65975   -69198.142   -57406.628   -76358.652   -847.16085    1533959.3    304.95424 
  227600    323.66402   -69147.778   -57319.563   -74999.939    -790.3178    1533959.3    292.99121 
  227700    308.06444   -68433.264   -57175.132   -72503.752   -685.19366    1533959.3    298.97789 
  227800    307.48103   -68072.732   -56835.921   -70786.032    -623.5739    1533959.3    285.04312 
  227900    305.15555   -67553.117   -56401.289    -68182.14   -526.60735    1533959.3    293.18045 
  228000    304.43806   -67023.673   -55898.066   -65434.092   -426.26308    1533959.3    299.05378 
  228100    310.60863   -66683.592   -55332.483   -64092.565   -391.57816    1533959.3    281.84894 
  228200    315.81703   -66332.903   -54791.454   -61748.667   -310.98939    1533959.3    288.77024 
  228300    313.94143   -65791.449   -54318.543   -58930.851   -206.17145    1533959.3    294.82436 
  228400    319.53036   -65521.039   -53843.887   -57583.338   -167.15448    1533959.3    291.38645 
  228500    316.99817   -64905.579   -53320.966   -53979.786   -29.449479    1533959.3    296.62058 
  228600    315.76653   -64300.595   -52760.992   -50821.748    86.684749    1533959.3    279.78515 
  228700    314.68833   -63666.273   -52166.073   -48225.692    176.13617    1533959.3    286.94325 
  228800    315.39288   -63071.294   -51545.346   -44803.951    301.34226    1533959.3     287.1566 
  228900    320.45547   -62659.469    -50948.51    -42503.12    377.51134    1533959.3    290.31549 
  229000    317.13959   -61916.977   -50327.196   -39686.999    475.61982    1533959.3    280.76241 
  229100    315.14032    -61195.91   -49679.191   -36584.355     585.3429    1533959.3     278.0303 
  229200     315.6324   -60490.263   -48955.562   -33208.976    703.87685    1533959.3    301.48171 
  229300    318.31754   -59931.693   -48298.864   -29904.148    822.24899    1533959.3    295.17417 
  229400    322.16415   -59513.853   -47740.451   -27141.919     920.7602    1533959.3    287.65307 
  229500    317.04596   -58635.462   -47049.102   -24338.736    1015.1598    1533959.3    288.02681 
  229600    322.29194   -58400.507   -46622.435   -22084.957    1096.8322    1533959.3    243.40077 
  229700    336.97159   -58790.404   -46475.868   -24730.408    972.02818    1533959.3    286.93579 
  229800    335.33422   -59102.742   -46848.043   -26547.901    907.42211    1533959.3    285.63264 
  229900    330.38259   -59704.944   -47631.201   -29741.775     799.6624    1533959.3    280.49466 
  230000    332.15087   -60561.329   -48422.965   -34092.267    640.58627    1533959.3    272.80008 
  230100    331.83509   -61251.271   -49124.447   -37885.866    502.36774    1533959.3    260.27555 
  230200    323.63164   -61484.929   -49657.898   -39666.682    446.61018    1533959.3    295.46466 
  230300    324.09563   -61990.238   -50146.251   -41810.926    372.59139    1533959.3    280.55526 
  230400     324.9267   -62494.676   -50620.317   -44144.849    289.45528    1533959.3    288.88381 
  230500    328.26335   -63116.689   -51120.393   -46635.456    200.47795    1533959.3    293.88423 
  230600     329.1154    -63527.78   -51500.346     -48941.5    114.38114    1533959.3    268.31886 
  230700    329.20083   -63840.104   -51809.548   -50344.832     65.47322    1533959.3     291.4474 
  230800    321.28877   -63949.106   -52207.694   -51184.933     45.71773    1533959.3    293.16139 
  230900    327.07593   -64493.309   -52540.407   -53067.316   -23.552966    1533959.3     293.1452 
  231000    324.56362    -64730.64    -52869.55   -54644.889   -79.358165    1533959.3    289.62848 
  231100    329.76118   -65270.505   -53219.472   -56858.455   -162.66358    1533959.3    213.78339 
  231200    328.38913   -65589.603    -53588.71   -58609.879   -224.44765    1533959.3    274.91573 
  231300    327.25228   -65924.744   -53965.397    -60147.01   -276.31984    1533959.3    287.62487 
  231400     325.1955   -66191.664   -54307.482   -62080.954   -347.47638    1533959.3    298.55375 
  231500    327.94035   -66562.555   -54578.063   -63436.777     -395.987    1533959.3    304.92453 
  231600    328.67962   -66871.265   -54859.757   -65047.885   -455.41222    1533959.3    287.63157 
  231700    324.72162   -67002.337   -55135.472   -65221.133   -450.83188    1533959.3    300.68506 
  231800    324.91047   -67247.043   -55373.278   -66774.995   -509.65998    1533959.3    303.93661 
  231900    325.32471   -67443.728   -55554.823    -68239.27   -566.99835    1533959.3    292.26257 
  232000    329.94754   -67758.245   -55700.401   -68594.872   -576.38648    1533959.3    286.74904 
  232100    328.47477   -67924.289   -55920.267   -69928.555   -626.17444    1533959.3    226.78827 
  232200    323.27296    -67974.14   -56160.216   -70548.469   -643.15899    1533959.3    298.96063 
  232300    322.67767   -68124.493   -56332.324   -70923.163   -652.21463    1533959.3    303.86835 
  232400     328.6068    -68484.98   -56476.133   -72445.147   -713.81946    1533959.3    272.33636 
  232500    323.49439   -68554.999   -56732.983    -73095.23   -731.39708    1533959.3    273.28604 
  232600    318.90334   -68583.838   -56929.602   -73394.095   -735.96754    1533959.3    282.07697 
  232700    321.36939   -68689.387   -56945.029   -73316.391   -731.80452    1533959.3    301.98986 
  232800    323.53211   -68754.484    -56931.09   -74045.511   -765.01945    1533959.3    295.47777 
  232900    324.21548   -68792.854   -56944.487   -73542.129   -741.91931    1533959.3    284.59383 
  233000     326.4697   -68995.306   -57064.558   -74238.729   -767.69027    1533959.3    285.13826 
  233100    321.04998   -68970.983   -57238.298   -74987.274   -793.38424    1533959.3    252.23996 
  233200    297.29383   -68279.497   -57414.974   -72712.931     -683.823    1533959.3    297.01337 
  233300    306.11846   -68136.262   -56949.245   -71614.876   -655.55788    1533959.3    299.31884 
  233400    305.59945   -67652.441   -56484.391   -68461.198   -535.36663    1533959.3    286.68906 
  233500    304.20675   -67090.682   -55973.529   -66364.312   -464.47094    1533959.3    302.87151 
  233600    314.33358   -66946.444   -55459.208   -64943.854   -423.96636    1533959.3    304.02804 
  233700    319.34818   -66684.587   -55014.094   -62545.404   -336.65172    1533959.3     295.8475 
  233800    320.90256   -66362.365   -54635.067   -60886.843   -279.45615    1533959.3    293.31023 
  233900    319.21945   -65995.739    -54329.95    -59056.51   -211.27853    1533959.3     290.9878 
  234000    321.97407   -65827.239   -54060.783   -58402.491   -194.07558    1533959.3     281.5228 
  234100    314.68603   -65322.551   -53822.434   -56044.681   -99.335068    1533959.3    259.03173 
  234200    305.77561    -64556.39   -53381.903   -51992.923    62.087788    1533959.3    292.55674 
  234300    313.65664   -64295.334   -52832.836   -50815.084    90.194106    1533959.3     290.3171 
  234400    311.79765   -63607.044   -52212.482   -47720.301    200.80176    1533959.3     293.2319 
  234500    312.80209   -62992.586   -51561.318   -44523.611    314.58748    1533959.3    290.52281 
  234600    311.56525    -62293.18   -50907.112   -41108.348     438.0075    1533959.3    254.29965 
  234700    310.67069   -61584.072   -50230.695   -37501.081    569.01738    1533959.3    283.59609 
  234800    313.80307   -61041.645   -49573.796   -34962.766     653.1172    1533959.3    281.52601 
  234900     315.6529     -60455.9   -48920.449   -32751.895    722.73896    1533959.3    287.29113 
  235000    321.86225   -60053.184   -48290.815   -30097.475    813.24743    1533959.3    274.91717 
  235100    322.77573   -59491.864   -47696.111   -27965.031    881.98487    1533959.3    256.83506 
  235200    323.49989   -58976.126   -47153.909   -24879.452    995.67453    1533959.3    288.84362 
  235300    317.37687   -58179.787   -46581.335   -21596.135    1116.8455    1533959.3    284.94416 
  235400     324.4387   -58462.251   -46605.726   -21821.973    1107.8408    1533959.3    285.07237 
  235500    338.80809   -59637.008   -47255.357   -28187.779    852.32616    1533959.3    287.24175 
  235600    333.00052   -60147.044    -47977.63    -31373.86    742.19319    1533959.3     290.4172 
  235700    333.52994   -60913.326   -48724.565   -35693.051    582.51236    1533959.3       286.31 
  235800     325.3907   -61177.212   -49285.896   -36855.797    555.62894    1533959.3    293.54692 
  235900    329.55715   -61876.376   -49832.798   -39982.448    440.31345    1533959.3     290.9218 
  236000    327.73939   -62303.874   -50326.726   -43474.139    306.31259    1533959.3    289.58808 
  236100    329.10895   -62729.486   -50702.287   -44714.849    267.64021    1533959.3    262.56295 
  236200    330.90591   -63144.018    -51051.15    -46539.85    201.65642    1533959.3    290.51014 
  236300    329.46774   -63510.938   -51470.628   -48484.766    133.46891    1533959.3    301.55107 
  236400    327.23581   -63780.483   -51821.738   -50461.028    60.824119    1533959.3    299.19692 
  236500    325.66491   -64069.577    -52168.24   -52847.345   -30.356214    1533959.3    294.36439 
  236600    313.40007   -63874.211    -52421.09   -51311.744    49.588052    1533959.3    297.19878 
  236700    306.06552   -63270.735   -52085.653   -48721.574    150.37528    1533959.3    294.40179 
  236800    305.05491    -62520.81    -51372.66   -44330.646       314.78    1533959.3    288.91784 
  236900    308.67066   -61943.613   -50663.327   -41859.886     393.5163    1533959.3    285.65891 
  237000    310.02145   -61189.574   -49859.923   -37852.865     536.7189    1533959.3    288.88281 
  237100    313.62701   -60518.313   -49056.898   -33846.244    679.92051    1533959.3    279.77041 
  237200    315.80968   -59836.287   -48295.107   -30650.765     788.7071    1533959.3    292.07818 
  237300    320.68309   -59355.014   -47635.737   -28600.016     850.9021    1533959.3     296.1322 
  237400    313.44462   -58239.355   -46784.606    -23467.72    1042.2714    1533959.3     284.9012 
  237500    328.57813   -58478.124   -46470.324   -23943.845      1006.94    1533959.3    287.54974 
  237600    323.24031   -57928.531   -46115.801   -21475.735    1101.4179    1533959.3    246.55553 
  237700    339.10071   -58915.129   -46522.784   -25826.819    925.11551    1533959.3    288.43226 
  237800    337.42393   -59638.786   -47307.719   -29802.629    782.48249    1533959.3    290.52784 
  237900     327.8846   -59944.817   -47962.362   -31240.099    747.48991    1533959.3    290.32473 
  238000    328.86418   -60618.973    -48600.72   -34867.586    613.87496    1533959.3    284.10457 
  238100    327.06396   -61072.728   -49120.263   -37395.008    524.12219    1533959.3    213.24873 
  238200    328.70431   -61621.628   -49609.218    -39993.44    429.82799    1533959.3    292.98262 
  238300    312.47852   -61039.737   -49620.294   -38261.363    507.74742    1533959.3    301.88423 
  238400    307.34273   -60058.742   -48826.984   -33573.001    681.85738    1533959.3    287.31258 
  238500    309.42608   -59298.999   -47991.106   -30272.033     792.0476    1533959.3    291.28952 
  238600    317.19916   -58891.118    -47299.16   -27169.117    899.81862    1533959.3    190.15379 
  238700    323.79468   -58560.694   -46727.704   -25473.747    950.05789    1533959.3     290.7653 
  238800    321.78825   -58050.661   -46290.996   -23429.407    1021.9195    1533959.3    288.54298 
  238900     330.0761   -58488.384   -46425.842   -24899.474    962.23474    1533959.3    287.01237 
  239000    332.68708    -59297.19    -47139.23   -29185.321    802.54483    1533959.3    281.01334 
  239100    327.83297   -59795.769   -47815.202   -32131.382    701.07119    1533959.3    257.80894 
  239200    327.97069   -60412.765   -48427.164   -34918.159    603.85634    1533959.3    293.82988 
  239300    326.52643   -60889.106   -48956.285   -36775.864    544.46826    1533959.3    291.24219 
  239400    325.41759   -61436.985   -49544.687    -39191.74    462.77964    1533959.3    295.60959 
  239500    326.83881   -62098.867    -50154.63   -42805.731    328.49788    1533959.3    294.97116 
  239600    326.07371   -62508.627   -50592.351   -44647.784     265.7238    1533959.3    292.91857 
  239700    326.31978   -62884.842   -50959.573   -45982.759    222.46497    1533959.3    290.14519 
  239800    326.26701   -63185.662   -51262.322   -48349.464    130.20554    1533959.3    293.17348 
  239900    321.15728    -63310.79   -51574.183   -49123.997      109.524    1533959.3    284.10303 
  240000    313.03194   -63099.234   -51659.566    -48209.21     154.2319    1533959.3    283.57999 
  240100    301.92695   -62177.243   -51143.403   -44141.849    312.97148    1533959.3    246.99415 
  240200    305.81866   -61617.884   -50441.823    -41054.34    419.62318    1533959.3    282.25711 
  240300    311.07413   -61115.157   -49747.036   -38193.812     516.4324    1533959.3    291.71172 
  240400    313.66576    -60495.11   -49032.279   -35067.021    624.25098    1533959.3    291.42026 
  240500    314.72201   -59739.784   -48238.352    -31379.76    753.58383    1533959.3    290.81187 
  240600    316.66045   -59096.099   -47523.828   -27723.409    885.08435    1533959.3    263.02579 
  240700    319.43609   -58531.009   -46857.302   -25372.571    960.37359    1533959.3    292.04747 
  240800    331.81545    -58617.88   -46491.773   -25157.073    953.66715    1533959.3    290.10645 
  240900    333.63415   -58422.251   -46229.681    -23982.23    994.46735    1533959.3    287.79716 
  241000     331.0725   -58913.596   -46814.641   -27513.178    862.78082    1533959.3    281.45781 
  241100    329.31222   -59659.567    -47624.94   -30274.047    775.58985    1533959.3    268.18504 
  241200    325.42322   -60177.195    -48284.69   -33172.615    675.51406    1533959.3    290.35066 
  241300    323.47295   -60682.292    -48861.06   -36571.344    549.35376    1533959.3    297.69703 
  241400    322.22567   -61149.004   -49373.353    -38621.78    480.59838    1533959.3    295.09837 
  241500    325.94746   -61791.023   -49879.361   -41307.288     383.1741    1533959.3    297.14783 
  241600    325.18848   -62227.936    -50344.01    -43283.14    315.62286    1533959.3    239.29615 
  241700     325.4469   -62588.383   -50695.014       -46064    207.00764    1533959.3    288.99906 
  241800    326.06367   -62965.098   -51049.189   -47676.394    150.76489    1533959.3    287.62487 
  241900    321.41714   -63144.338   -51398.235   -48533.589    128.05052    1533959.3    288.84959 
  242000    332.09989   -63946.685   -51810.184   -51604.751    9.1829259    1533959.3    286.29338 
  242100    330.70558    -64414.72   -52329.174   -54213.969   -84.250871    1533959.3    249.98072 
  242200    326.05072   -64692.564   -52777.128   -55623.527   -127.23485    1533959.3    299.42803 
  242300    327.78655   -65103.009   -53124.138   -57409.308   -191.54836    1533959.3    273.18156 
  242400    326.58654   -65339.134   -53404.116   -58101.831   -209.98919    1533959.3    226.59396 
  242500    324.55368   -65541.167    -53680.44   -59068.522   -240.84879    1533959.3    259.18284 
  242600    325.68681   -65889.347    -53987.21   -60944.366   -310.98684    1533959.3    289.04148 
  242700    329.08197   -66317.262   -54291.049   -62934.859   -386.38073    1533959.3    292.15346 
  242800    328.92977   -66674.438   -54653.788   -64652.184   -446.93114    1533959.3    291.57909 
  242900     327.4501   -66959.164   -54992.588   -65621.644   -475.12185    1533959.3    291.72551 
  243000    328.35468   -67251.455   -55251.821   -67504.709   -547.70757    1533959.3    291.35751 
  243100     323.9025   -67419.483   -55582.554   -68388.586   -572.43327    1533959.3      214.874 
  243200    325.01211   -67685.515   -55808.034   -69718.015   -621.78006    1533959.3    259.58851 
  243300    320.29754   -67721.508    -56016.32   -70004.462   -625.27389    1533959.3    280.72313 
  243400    322.36833   -67886.685   -56105.821   -70562.083   -646.19902    1533959.3    291.41419 
  243500    328.89858    -68223.49   -56203.979   -71467.179   -682.26934    1533959.3    296.53104 
  243600    326.18232   -68338.827   -56418.582   -72175.276   -704.32871    1533959.3    299.39576 
  243700    304.86731   -67878.154    -56736.86   -70574.984   -618.56809    1533959.3    282.33444 
  243800    297.57234   -67285.132   -56410.431   -68780.221   -552.93309    1533959.3     283.6686 
  243900    302.95101   -66950.062   -55878.798   -66297.238   -465.70721    1533959.3    287.95206 
  244000     312.0794   -66719.727   -55314.869   -65116.724   -438.14569    1533959.3    279.51312 
  244100    312.10085   -66205.688   -54800.047     -62168.9   -329.38982    1533959.3    254.19809 
  244200    316.33401   -65872.519   -54312.178   -59944.276   -251.75635    1533959.3    286.47387 
  244300    311.40642   -65201.061   -53820.797   -56547.652    -121.8912    1533959.3    303.70751 
  244400    310.95123   -64594.322   -53230.693   -54212.785   -43.899789    1533959.3    297.99779 
  244500    316.51534   -64212.901   -52645.933   -51876.222    34.406296    1533959.3    297.32519 
  244600    316.01785   -63679.033   -52130.246   -49579.609    114.01417    1533959.3    269.09282 
  244700    326.45916       -63646   -51715.637   -48600.826    139.23297    1533959.3    288.88958 
  244800    319.65727   -62966.842   -51285.053   -45270.086    268.87074    1533959.3     289.7165 
  244900    313.58012   -62135.202   -50675.501   -41903.795    392.09773    1533959.3    279.05694 
  245000    314.81119   -61469.344   -49964.653   -38395.854    517.12861    1533959.3    279.51219 
  245100    316.97104   -60876.983   -49293.362   -35472.142    617.81244    1533959.3    250.18082 
  245200    317.53904   -60184.141   -48579.762   -31467.482    764.92377    1533959.3    297.54645 
  245300    318.97092   -59540.403   -47883.696   -28638.891    860.24824    1533959.3    291.32594 
  245400    317.56843   -58769.419   -47163.966   -25517.384    967.60834    1533959.3    289.23063 
  245500    321.19019   -58360.187   -46622.378   -22588.511    1074.3206    1533959.3     290.4174 
  245600    328.72267   -58376.335   -46363.254    -22369.95    1072.5075    1533959.3    186.95185 
  245700    327.37034    -58728.68   -46765.019   -24926.248    976.19925    1533959.3    285.51851 
  245800    332.58432    -59676.95   -47522.745   -29290.302    814.99539    1533959.3    287.93309 
  245900    330.71734   -60319.477   -48233.501   -32703.292    694.20475    1533959.3    290.75683 
  246000    331.97878   -61027.566   -48895.491   -36281.805    563.83531    1533959.3    287.36868 
  246100    328.54278   -61466.892   -49460.385   -38943.612     470.1027    1533959.3    250.86225 
  246200    327.21082   -61921.254   -49963.422   -40816.608    408.86519    1533959.3     303.8831 
  246300    325.45399   -62279.778    -50386.15   -42644.566      346.051    1533959.3    296.17172 
  246400    323.30834    -62590.59   -50775.373    -44592.07    276.39541    1533959.3    292.35058 
  246500    325.10874   -63052.858   -51171.847   -46519.635    207.95521    1533959.3     289.3779 
  246600    335.06596   -63888.787   -51643.891   -50799.861    37.728406    1533959.3    294.23182 
  246700    330.96281   -64253.306   -52158.359   -52639.188    -21.49316    1533959.3     290.2261 
  246800    330.29975    -64693.53   -52622.815    -54088.81   -65.530392    1533959.3     297.8725 
  246900    327.48856   -65009.401    -53041.42   -55754.111   -121.25808    1533959.3    295.46736 
  247000     327.9603   -65373.961    -53388.74   -58241.312   -216.91135    1533959.3    294.35737 
  247100    324.34815   -65559.575    -53706.36   -59277.574   -249.03484    1533959.3    268.05478 
  247200    325.66193    -65919.99   -54018.762   -60637.064   -295.83996    1533959.3    287.29113 
  247300     328.6715   -66364.832    -54353.62   -62345.085   -357.22073    1533959.3    284.93855 
  247400    319.72732   -66421.857   -54737.508   -63422.786   -388.23437    1533959.3    307.81443 
  247500     326.7179   -66919.432   -54979.614   -65281.302    -460.4884    1533959.3    303.80452 
  247600    327.92305   -67221.123   -55237.264   -66596.027   -507.73993    1533959.3    304.42237 
  247700    324.33083   -67359.841   -55507.258   -68045.253   -560.45192    1533959.3    304.22872 
  247800    328.13675   -67659.866   -55668.197   -69049.982    -598.1696    1533959.3    279.63425 
  247900    317.25703   -67560.462    -55966.39   -69035.039   -584.17234    1533959.3    297.77142 
  248000    328.53041   -68068.385    -56062.33    -70618.09   -650.64662    1533959.3    300.45825 
  248100    332.78307   -68472.423   -56310.955   -72574.149   -726.96935    1533959.3    222.82239 
  248200    329.12803   -68668.521   -56640.625   -73532.569   -755.07466    1533959.3    290.30785 
  248300    325.91156     -68832.8    -56922.45   -74324.409   -777.87249    1533959.3     296.3831 
  248400    325.56584   -69015.926   -57118.209   -75182.983   -807.50049    1533959.3    297.12573 
  248500    321.41591   -69050.506   -57304.448   -75221.725   -800.90738    1533959.3    298.50743 
  248600    308.25353   -68746.798   -57481.756   -74419.274   -757.11185    1533959.3    199.12144 
  248700    308.70675   -68430.842   -57149.237    -72649.29   -692.85674    1533959.3     288.5944 
  248800    311.30561   -68130.598   -56754.018   -71548.861   -661.33367    1533959.3    292.36688 
  248900    311.18524   -67730.156   -56357.975   -69521.345   -588.40638    1533959.3    289.77294 
  249000    311.60187   -67311.813   -55924.407   -66705.415   -481.91413    1533959.3    285.66105 
  249100    312.07438   -66828.422   -55423.747   -64415.574   -401.93721    1533959.3    180.19092 
  249200    315.38539   -66456.698   -54931.024    -62312.99   -329.97598    1533959.3    250.83465 
  249300    314.89405   -65964.584   -54456.866   -59769.149   -237.46057    1533959.3    251.88791 
  249400    318.24058   -65613.219   -53983.202   -57915.205   -175.76165    1533959.3    261.16203 
  249500    310.16354   -64813.861   -53479.018   -55264.407   -79.807429    1533959.3    289.91235 
  249600    316.38312   -64527.009   -52964.873   -52841.573    5.5115607    1533959.3    294.06576 
  249700    319.01824   -64109.478   -52451.041   -50487.367    87.776809    1533959.3     288.9664 
  249800    319.65756   -63662.781   -51980.981   -48255.432    166.53312    1533959.3    293.75724 
  249900     326.5082   -63483.321   -51551.166   -46891.062    208.30795    1533959.3    275.10993 
  250000    317.36107   -62699.141   -51101.266   -44110.619    312.48391    1533959.3    259.38399 
  250100    314.32357   -61971.809   -50484.938   -40868.939    429.83786    1533959.3    246.55074 
  250200    311.18872   -61109.787   -49737.479   -36137.466    607.92447    1533959.3    297.98615 
  250300    315.86457   -60615.318   -49072.133   -33542.855    694.16309    1533959.3    296.29182 
  250400    318.28134   -60061.303   -48429.797   -31017.889    778.31724    1533959.3    291.80568 
  250500    321.41259   -59551.957    -47806.02   -28838.552    847.85121    1533959.3     294.0639 
  250600      319.205   -58808.094   -47142.833   -25366.232    973.42026    1533959.3    212.52682 
  250700    331.02868   -58890.295    -46792.94   -25732.062     941.4272    1533959.3    284.06994 
  250800    329.99585   -58565.183   -46505.574   -24816.166    969.52265    1533959.3    287.32892 
  250900     338.7272   -59161.173   -46782.479   -26663.751    899.31281    1533959.3    278.72852 
  251000    336.18916   -59827.233    -47541.29   -30738.839    751.07433    1533959.3    273.24278 
  251100    327.49985   -60140.889   -48172.495   -32916.053    681.96727    1533959.3    287.17232 
  251200    329.45181   -60893.298    -48853.57   -35986.282    575.17143    1533959.3    294.23615 
  251300    325.69698   -61283.763   -49381.254   -38818.072    472.17724    1533959.3    287.00255 
  251400    325.51965   -61796.198    -49900.17   -40975.101    398.95309    1533959.3    287.40019 
  251500    325.37342   -62175.766   -50285.081   -42683.505    339.79263    1533959.3    286.57976 
  251600    327.03311   -62611.032   -50659.695   -45367.383    236.56784    1533959.3    296.44909 
  251700    329.47155    -63008.58   -50968.131   -47074.677    174.03847    1533959.3    287.96274 
  251800    327.51185   -63322.317   -51353.485   -48133.489    143.93472    1533959.3    281.68464 
  251900    335.42053   -64047.285   -51789.432     -51376.2    18.471564    1533959.3    284.76811 
  252000    329.46364   -64308.155   -52267.995   -53650.584   -61.802091    1533959.3    281.66383 
  252100    324.80677   -64566.138   -52696.162   -55248.046   -114.06992    1533959.3    245.27721 
  252200    330.40903   -65119.573   -53044.864     -57052.8   -179.15587    1533959.3    285.79438 
  252300    328.69938   -65406.344   -53394.113   -58545.775   -230.28072    1533959.3     298.5342 
  252400    325.83821   -65629.506   -53721.836   -59704.921   -267.44557    1533959.3    295.82392 
  252500    328.52581   -65906.738    -53900.85   -60635.562   -301.04352    1533959.3     299.8553 
  252600    323.89628   -66066.748   -54230.045   -61390.034    -320.0535    1533959.3    289.50433 
  252700    329.94985   -66549.457   -54491.529   -63771.193    -414.8036    1533959.3    297.82301 
  252800    331.46617   -66849.668   -54736.326    -65035.42   -460.37242    1533959.3    299.93636 
  252900    328.02601    -67040.01   -55052.387   -65691.051   -475.55127    1533959.3    304.04942 
  253000    324.76543   -67191.868   -55323.402   -66443.945   -497.09138    1533959.3    298.52782 
  253100    315.13132   -67102.796   -55586.407   -67517.004   -533.30106    1533959.3    212.60536 
  253200    325.26503   -67519.497   -55632.774   -68499.029   -575.12522    1533959.3    298.81984 
  253300    329.93698    -67887.31   -55829.852   -69861.554   -627.22108    1533959.3    299.12523 
  253400    324.40001   -67996.015   -56140.904   -70639.393   -648.08659    1533959.3    288.01435 
  253500     324.6638   -68229.537   -56364.785   -71419.899   -672.96786    1533959.3    293.65995 
  253600    328.92385   -68586.991   -56566.558   -72469.795   -710.87922    1533959.3     212.4193 
  253700    326.69845   -68797.946   -56858.839   -74167.027    -773.6809    1533959.3    292.70823 
  253800     326.5759   -69026.529   -57091.901   -74847.861   -793.69643    1533959.3    290.84575 
  253900    321.81448   -69077.972   -57317.348   -75314.386    -804.4727    1533959.3    292.01839 
  254000    322.96935   -69222.449   -57419.621    -75749.83   -819.36553    1533959.3    295.88173 
  254100    321.20919   -69235.205   -57496.701   -75838.975   -819.90482    1533959.3    224.63176 
  254200       318.98    -69129.09   -57472.051   -75093.965   -787.70452    1533959.3    257.43535 
  254300    311.84941   -68683.396   -57286.943   -73596.978    -729.0632    1533959.3      241.557 
  254400    313.99718   -68419.505   -56944.562   -72487.333   -694.76624    1533959.3    306.98108 
  254500    313.58662   -68047.246   -56587.308   -69708.678   -586.52899    1533959.3    277.47795 
  254600    313.08828   -67659.582   -56217.854   -68393.079     -544.236    1533959.3    255.96391 
  254700    312.52801   -67228.813   -55807.561   -66947.654   -497.96533    1533959.3    270.04258 
  254800     311.6827    -66728.28    -55337.92   -64109.216    -392.0794    1533959.3    286.23516 
  254900    316.91708   -66408.256   -54826.607   -62245.523   -331.62767    1533959.3     299.2947 
  255000    315.92299   -65906.828   -54361.507   -60169.213   -259.60607    1533959.3    299.55185 
  255100    315.83732   -65434.418   -53892.228   -57015.791   -139.62415    1533959.3    274.10025 
  255200    311.09762   -64744.353   -53375.373   -53741.138   -16.349788    1533959.3    295.56418 
  255300    317.09592   -64429.031   -52840.845    -52052.75    35.228064    1533959.3    298.19673 
  255400    320.48844   -64012.616   -52300.452   -49251.804    136.27544    1533959.3    297.53315 
  255500    318.03197   -63420.444   -51798.051   -46865.204    220.49967    1533959.3    293.81609 
  255600    315.96283   -62858.033   -51311.256   -44238.736    316.14367    1533959.3    276.02731 
  255700    319.83138   -62522.169   -50834.018   -42549.096    370.33834    1533959.3    290.91414 
  255800    311.68495   -61503.272   -50112.829   -38097.896    537.07092    1533959.3    281.50069 
  255900    316.31576   -61044.043   -49484.368   -35541.963    623.22949    1533959.3    289.38029 
  256000    322.70096   -60670.702   -48877.682   -33438.705    690.12665    1533959.3    280.91773 
  256100    319.37922   -59825.238    -48153.61   -29663.047    826.53343    1533959.3    291.76224 
  256200    317.63026   -59067.782    -47460.07   -25422.331    985.09316    1533959.3    297.96752 
  256300    322.46472   -58721.904   -46937.517   -24426.365    1006.2549    1533959.3    294.20065 
  256400     321.1595   -58120.485   -46383.798   -19993.169    1179.6686    1533959.3    290.78223 
  256500    340.81532   -59364.049   -46909.045   -26383.344    917.50462    1533959.3       292.58 
  256600     339.7349   -60184.417   -47768.896   -31067.147    746.57289    1533959.3    268.99928 
  256700    331.77931    -60608.82   -48484.035   -33490.209    670.22823    1533959.3    287.88091 
  256800    327.25254   -61109.254   -49149.898   -36117.298    582.56091    1533959.3    287.91727 
  256900    327.21542   -61665.852   -49707.852   -38319.177      509.077    1533959.3    289.26893 
  257000    326.23579   -62167.936   -50245.737   -42301.397    355.11425    1533959.3     286.3139 
  257100    322.75215   -62504.022   -50709.132   -43881.931    305.17781    1533959.3    234.93263 
  257200    333.07411   -63399.437   -51227.334   -47482.077    167.41403    1533959.3     272.4379 
  257300    325.52046   -63646.843   -51750.785   -49341.272    107.70592    1533959.3    300.81898 
  257400    328.74003   -64213.016     -52199.3   -52278.748    -3.551367    1533959.3    291.12676 
  257500    325.64188   -64542.892   -52642.397   -54136.455    -66.78482    1533959.3    291.30146 
  257600    326.81594    -64991.93   -53048.529   -56040.224   -133.72962    1533959.3       282.62 
  257700     328.1139   -65396.173   -53405.338   -57825.264   -197.57192    1533959.3    292.11317 
  257800    320.30532   -65471.688   -53766.216   -58202.916   -198.32173    1533959.3    294.31853 
  257900    325.75008   -65858.711   -53954.262   -60063.576   -273.08808    1533959.3    294.15485 
  258000    333.39374   -66314.387   -54130.602   -62276.955   -364.14431    1533959.3    292.64145 
  258100    327.22551   -66410.582   -54452.213   -62867.364   -376.15963    1533959.3    244.42887 
  258200    323.77798   -66611.773   -54779.393   -63972.767    -410.9464    1533959.3    295.41929 
  258300    326.47843   -66971.811   -55040.745   -65285.018    -457.9219    1533959.3    293.06676 
  258400    317.67441   -66956.381   -55347.055   -65922.704   -472.73451    1533959.3    299.34746 
  258500    321.85933     -67259.4   -55497.138   -67084.845   -517.97381    1533959.3    300.31669 
  258600    326.03619   -67546.727   -55631.822   -68245.261   -563.82431    1533959.3    264.83037 
  258700    326.54969    -67799.87     -55866.2   -69543.908   -611.39743    1533959.3    290.95833 
  258800    327.79794   -68082.387   -56103.099   -70212.377   -630.68868    1533959.3    292.49329 
  258900    330.72075   -68413.313   -56327.212   -71729.448   -688.48432    1533959.3    298.67876 
  259000    329.37262   -68619.975   -56583.141   -72780.181   -724.01223    1533959.3    296.72886 
  259100    323.89551   -68708.436   -56871.761   -73852.309   -759.03528    1533959.3    228.77739 
  259200    324.00466   -68862.311   -57021.648   -74652.981    -788.1256    1533959.3     250.2465 
  259300     324.8866   -68974.807   -57101.913    -74136.14   -761.43475    1533959.3    289.07255 
  259400     326.4255   -69160.996   -57231.864   -75239.347   -804.93958    1533959.3    304.78427 
  259500    322.68246   -69218.763   -57426.419    -75836.21   -822.92284    1533959.3    297.84056 
  259600    315.10827   -69099.452   -57583.905   -75522.964   -801.88099    1533959.3    302.68005 
  259700    298.65913   -68351.087    -57436.67   -72066.529   -653.95884    1533959.3     295.2839 
  259800    308.01665   -68176.299   -56919.913   -71368.784   -645.86859    1533959.3    291.29053 
  259900    311.37472   -67831.078   -56451.973   -68825.454    -553.0981    1533959.3    296.75174 
  260000    312.62177   -67399.781   -55975.103   -66608.375   -475.31026    1533959.3    298.34712 
  260100    316.15509   -67031.675   -55477.872   -64892.047   -420.81627    1533959.3     223.8654 
  260200    318.35978   -66582.661   -54948.289   -62262.202   -326.93398    1533959.3    283.92956 
  260300    312.32827   -65871.283    -54457.33   -58885.765   -197.95227    1533959.3     270.1659 
  260400    314.77037   -65407.038   -53903.839   -56495.053   -115.82799    1533959.3    269.09782 
  260500    312.34506   -64724.373   -53309.806   -53299.693   0.45208184    1533959.3    280.30046 
  260600    320.76211   -64474.488   -52752.323   -52070.496    30.477859    1533959.3    294.77484 
  260700    316.33444   -63751.167    -52190.81   -48477.939    165.96638    1533959.3    291.78762 
  260800    318.38312   -63319.613   -51684.387   -46618.445    226.44907    1533959.3    286.28107 
  260900    322.86144   -62990.692   -51191.808   -44736.984    288.53243    1533959.3    282.19824 
  261000    313.52054    -61957.76   -50500.235   -39651.996    484.91938    1533959.3    288.55528 
  261100    318.25401   -61484.711   -49854.204   -38013.047    529.30309    1533959.3    198.05819 
  261200    315.32828   -60593.116   -49069.529   -33209.353    708.95437    1533959.3    271.33584 
  261300    316.41238   -59900.332   -48337.126   -30427.529    800.56406    1533959.3    282.98878 
  261400    323.01705    -59563.44   -47758.868   -28258.573    871.66873    1533959.3    292.25748 
  261500    325.14039     -59082.4   -47200.232   -26240.054    936.92587    1533959.3    288.43206 
  261600    319.40137   -58201.563   -46529.126   -21480.672     1119.673    1533959.3    288.74281 
  261700    331.10605   -58615.938   -46515.756   -23935.997    1009.3216    1533959.3    284.80872 
  261800    335.97025   -59250.136   -46972.194   -25925.235    940.80499    1533959.3    286.32778 
  261900    334.12917   -60004.533   -47793.872   -30277.626    782.98115    1533959.3    282.70076 
  262000    328.55882   -60418.499   -48411.405   -33766.107    654.64899    1533959.3    287.96353 
  262100    321.85059   -60705.922   -48943.979   -34983.575    624.03401    1533959.3    230.75396 
  262200    328.72768    -61545.21   -49531.945   -38971.223    472.06729    1533959.3    272.27342 
  262300    327.52371   -61958.033   -49988.767   -40514.526    423.50125    1533959.3    262.01676 
  262400    327.45445    -62389.31   -50422.575   -43911.256    291.05779    1533959.3    283.55679 
  262500    325.97621   -62755.806   -50843.093   -44927.778    264.41629    1533959.3    290.03925 
  262600    324.32199   -63090.483   -51238.223   -46938.651    192.19211    1533959.3    292.49675 
  262700    330.98044   -63748.995   -51653.404   -49136.461    112.50806    1533959.3    289.00065 
  262800    329.54787   -64126.667   -52083.429   -51437.444    28.875697    1533959.3    282.98782 
  262900    328.24272   -64495.412    -52499.87   -53745.501   -55.680037    1533959.3    274.24399 
  263000    323.31783   -64689.777   -52874.214   -54986.975   -94.441009    1533959.3    266.73705 
  263100    328.29099   -65201.243   -53203.937   -57043.677   -171.63747    1533959.3    275.11895 
  263200    321.56111   -65270.125   -53518.761   -57759.393   -189.55745    1533959.3    283.96916 
  263300    324.09671   -65658.618   -53814.591   -59483.897   -253.41961    1533959.3    276.56241 
  263400    328.80438   -66026.162   -54010.094   -60637.779    -296.2594    1533959.3    285.17413 
  263500    325.92387   -66217.428   -54306.628   -61888.975   -338.93305    1533959.3    282.32399 
  263600    324.28552   -66450.699   -54599.772   -63001.437   -375.55679    1533959.3    286.01089 
  263700    325.44947    -66718.91   -54825.446   -64483.813   -431.73173    1533959.3     291.8729 
  263800    327.23729   -67038.511   -55079.713    -65230.63   -453.74888    1533959.3    279.69597 
  263900     328.7777   -67296.489   -55281.397   -66956.144   -521.86452    1533959.3    287.78136 
  264000    324.40178   -67395.473   -55540.297   -68100.875   -561.46137    1533959.3    291.06413 
  264100     328.4358   -67721.858   -55719.261    -68839.45   -586.47617    1533959.3    272.05179 
  264200    324.27711   -67835.334   -55984.714   -69212.949   -591.30585    1533959.3    285.73305 
  264300    329.92401   -68199.204    -56142.22   -70112.637   -624.48161    1533959.3    310.23716 
  264400    322.60012   -68230.227   -56440.893   -71106.955   -655.57714    1533959.3    306.08007 
  264500    324.14147   -68382.317   -56536.655    -72153.09   -698.05907    1533959.3    294.50473 
  264600    326.34122   -68628.445   -56702.393   -72522.802   -707.17675    1533959.3    211.65053 
  264700    321.47524   -68706.044   -56957.818   -73381.276   -734.13323    1533959.3    302.72658 
  264800    319.27894   -68752.585   -57084.622   -74015.997   -756.83722    1533959.3    295.83102 
  264900    326.98556   -68931.326   -56981.727   -73897.757   -756.15134    1533959.3    302.52788 
  265000    326.80157    -68995.24   -57052.365   -74499.671   -779.89952    1533959.3    296.22423 
  265100    296.60427   -68302.893    -57463.57   -72710.926   -681.56114    1533959.3    218.28439 
  265200    303.31202   -68163.326    -57078.87   -71332.937   -637.16085    1533959.3    303.12958 
  265300    304.85349   -67742.696   -56601.908   -69286.045   -566.98454    1533959.3    300.21459 
  265400    307.70495    -67320.74   -56075.745   -66772.547   -478.15006    1533959.3    271.53557 
  265500    310.34308    -66865.79   -55524.385   -64086.356   -382.72251    1533959.3    247.00564 
  265600    312.72598   -66410.065   -54981.578   -61813.292   -305.37953    1533959.3    293.32479 
  265700    311.80723   -65808.507   -54413.595   -59554.272    -229.7897    1533959.3    262.28744 
  265800    312.33874   -65249.834   -53835.499   -56288.628   -109.65557    1533959.3     282.0176 
  265900    312.82005   -64635.259   -53203.334   -52586.998    27.550431    1533959.3     274.0904 
  266000    317.48897   -64189.977   -52587.428   -50994.598    71.199963    1533959.3    283.82888 
  266100    318.57665    -63643.77   -52001.471    -48061.01    176.13972    1533959.3    256.65574 
  266200    314.59079   -62888.021   -51391.385   -44593.938    303.84779    1533959.3    250.68503 
  266300    311.90486   -62111.339   -50712.859   -40596.346    452.21101    1533959.3    278.13779 
  266400    313.67151    -61458.09   -49995.049   -37629.314    552.75186    1533959.3    288.02167 
  266500    312.77852   -60639.547    -49209.14   -33483.917    702.92192    1533959.3    274.97845 
  266600      317.896   -60114.349   -48496.926   -31390.908    764.64385    1533959.3    291.56815 
  266700    330.23833   -60025.114   -47956.643    -30263.46    790.89028    1533959.3    289.46477 
  266800    327.80604   -59390.061   -47410.477   -26762.455    922.97243    1533959.3    287.52155 
  266900    320.63304   -58487.012   -46769.563   -23896.624    1022.4269    1533959.3    287.17488 
  267000    335.07381   -58890.216   -46645.034   -24781.957    977.28573    1533959.3    283.51347 
  267100    336.85256   -59329.347    -47019.16   -27323.346    880.40849    1533959.3    285.67836 
  267200    333.75578   -59966.836   -47769.821   -30930.524    752.72135    1533959.3    288.50289 
  267300    329.14725   -60544.693   -48516.095   -33439.561    673.92534    1533959.3    291.02152 
  267400    323.38537   -60947.028   -49128.997   -36270.913    574.75999    1533959.3    279.50064 
  267500    326.76176   -61610.574   -49669.154    -38898.67    481.44367    1533959.3    279.79859 
  267600    328.18376    -62036.61   -50043.223   -41484.053    382.59732    1533959.3    282.95193 
  267700    320.99963   -62110.271   -50379.425   -42215.939    364.91013    1533959.3    275.41758 
  267800      327.907   -62787.962   -50804.689   -45199.882    250.53646    1533959.3    283.84175 
  267900    325.66271   -63121.509   -51220.253   -46884.436    193.81223    1533959.3    290.19899 
  268000     330.1648   -63726.344    -51660.56   -49610.466    91.639779    1533959.3    283.36714 
  268100      327.846   -64023.919   -52042.875   -51440.243     26.93783    1533959.3    251.03552 
  268200    329.17832    -64434.14   -52404.407   -53881.568   -66.029504    1533959.3    277.66605 
  268300    323.75995   -64614.331    -52782.61   -54036.637   -56.055355    1533959.3    278.69204 
  268400    321.26682   -64868.398   -53127.788   -55550.006   -108.27381    1533959.3    277.72066 
  268500    320.02811   -65113.534   -53418.193   -56554.957   -140.21426    1533959.3    297.47913 
  268600    328.38662   -65652.549   -53651.748   -59429.015   -258.24543    1533959.3    298.16133 
  268700    322.63023   -65751.445    -53961.01   -60391.123   -287.42789    1533959.3    294.42679 
  268800    324.82537   -66095.979   -54225.323   -61443.713   -322.66409    1533959.3    296.52118 
  268900    325.56695   -66404.946   -54507.189   -63059.494   -382.29045    1533959.3    295.32756 
  269000    317.12034   -66364.195   -54775.117   -62917.872   -363.98343    1533959.3    290.15703 
  269100    327.79185   -66889.099   -54910.034   -65273.633   -463.25582    1533959.3    267.58791 
  269200    324.40846   -67010.785   -55155.365   -66207.411   -494.02961    1533959.3    294.53182 
  269300    324.62716   -67195.152   -55331.739   -67130.834   -527.42286    1533959.3    305.64758 
  269400    327.00604   -67452.489   -55502.141   -68135.593   -564.71889    1533959.3    295.25002 
  269500    324.22302   -67578.258   -55729.615   -69012.833   -593.76361    1533959.3    289.13532 
  269600     326.6981   -67680.366   -55741.271   -68928.405   -589.46858    1533959.3    279.61225 
  269700    330.74407   -67837.242   -55750.289   -69674.807   -622.42988    1533959.3    294.30635 
  269800    329.32623    -68033.57   -55998.431   -70333.155   -640.76621    1533959.3    304.72382 
  269900    326.22948    -68164.81   -56242.841       -71515   -682.66981    1533959.3    301.33378 
  270000    324.14988   -68286.595   -56440.625   -72167.094   -702.97763    1533959.3     297.3313 
  270100    324.28574   -68435.545   -56584.609   -72870.495   -727.98371    1533959.3    267.58074 
  270200    326.40051   -68619.863   -56691.644   -73486.914   -750.75336    1533959.3    300.41585 
  270300    326.66386   -68773.062   -56835.219    -74143.86   -773.70114    1533959.3    308.63732 
  270400    327.52218     -68956.8    -56987.59   -74973.616   -803.98044    1533959.3    308.24696 
  270500    327.02037   -69101.709   -57150.837   -75648.236   -826.83895    1533959.3    305.51156 
  270600     302.9575   -68554.693   -57483.193   -74280.862   -750.86058    1533959.3    220.42163 
  270700    296.83807   -68062.454   -57214.586   -71697.688   -647.39877    1533959.3     305.8571 
  270800    301.57945   -67737.077   -56715.937   -69765.055   -583.29928    1533959.3    300.85955 
  270900    302.00506   -67200.066   -56163.372   -66786.967   -474.87771    1533959.3    302.08556 
  271000    299.85884    -66512.41   -55554.149   -64142.638    -383.9079    1533959.3    296.45349 
  271100    305.51898   -66056.859   -54891.749   -61057.423   -275.60738    1533959.3    196.49299 
  271200    309.83366   -65550.593   -54227.805   -58065.958   -171.56653    1533959.3    231.22464 
  271300    311.85607   -64950.658   -53553.961   -55307.217   -78.371022    1533959.3    249.97938 
  271400    310.16983   -64171.506   -52836.433   -51602.817    55.142997    1533959.3    247.50209 
  271500    313.35196   -63583.867   -52132.504   -48139.289    178.49786    1533959.3    288.97895 
  271600    317.13766   -63066.116   -51476.405   -45861.726    250.97774    1533959.3    299.59485 
  271700    311.40137   -62098.621   -50718.541   -41317.038    420.24985    1533959.3    294.76614 
  271800    312.49907   -61331.265   -49911.071   -37131.987    571.22865    1533959.3    291.59632 
  271900    311.15301   -60403.987   -49032.984   -33064.509    713.79535    1533959.3    288.69193 
  272000    315.73984   -59796.259   -48257.631   -30189.184    807.66468    1533959.3    276.85559 
  272100    323.24256   -59422.734   -47609.921   -28166.274    869.13655    1533959.3    278.22063 
  272200     317.6345   -58371.928    -46764.06   -22547.171    1082.5018    1533959.3    292.12171 
  272300    335.02054   -58797.586    -46554.35   -24146.196    1001.6509    1533959.3    287.40354 
  272400    338.10062   -59474.448   -47118.652   -27201.643    890.29595    1533959.3    289.35673 
  272500    329.48649   -59977.406    -47936.41   -30396.461     784.0407    1533959.3    294.21469 
  272600    324.92232   -60509.119    -48634.92   -34153.609    647.31874    1533959.3    293.27577 
  272700    323.92856   -61068.861   -49230.979   -36412.091    573.00791    1533959.3    292.98098 
  272800    324.82696   -61621.603   -49750.889   -39536.559    456.58344    1533959.3    291.94685 
  272900    322.19721   -61971.599   -50196.989   -41474.242    389.90922    1533959.3    289.59068 
  273000    328.81621   -62690.134   -50673.634   -44090.378    294.27339    1533959.3    289.98791 
  273100     327.7075   -63024.698   -51048.716   -46889.357     185.9245    1533959.3    243.46124 
  273200    324.79568   -63166.007   -51296.437   -47608.722    164.84189    1533959.3    299.97154 
  273300    318.88924   -63178.256   -51524.534   -47235.198    191.73452    1533959.3    243.95771 
  273400    329.44859   -63872.532   -51832.922   -50270.689    69.832279    1533959.3    251.72812 
  273500    328.02429   -64230.192   -52242.632   -52263.505  -0.93301246    1533959.3    266.03256 
  273600    325.34033   -64495.634   -52606.159    -53302.58   -31.130232    1533959.3    278.57949 
  273700     322.5052   -64711.327   -52925.461   -54977.017   -91.705141    1533959.3    288.15939 
  273800    324.05249   -64920.178   -53077.767   -56135.619   -136.68683    1533959.3    294.71415 
  273900    326.23279   -65123.483   -53201.394   -57069.987    -172.9272    1533959.3    295.35979 
  274000    324.88219    -65342.37   -53469.638   -57795.829   -193.38196    1533959.3     288.9889 
  274100    326.41918   -65707.939   -53779.038   -59544.558   -257.72034    1533959.3    256.21972 
  274200    322.29472   -65847.281   -54069.108   -60936.549   -306.97658    1533959.3    293.01127 
  274300    320.66591   -66014.965   -54296.315   -61565.597   -324.93895    1533959.3    266.91426 
  274400    305.69093   -65542.422   -54371.029   -59942.184    -249.0322    1533959.3     295.3103 
  274500    307.12798   -65072.724   -53848.815   -57157.089   -147.88079    1533959.3     284.6821 
  274600    301.26527   -64205.394   -53195.735   -52725.941    20.999936    1533959.3    258.82186 
  274700    303.72622   -63596.378   -52496.785    -49472.07    135.20565    1533959.3    289.95925 
  274800    313.49783   -63305.789   -51849.095   -47422.789    197.85713    1533959.3     282.3831 
  274900    307.17066   -62288.661   -51063.192   -42747.389    371.71876    1533959.3    277.97005 
  275000     310.5316   -61625.504    -50277.21   -39545.678    479.70251    1533959.3     269.2979 
  275100    308.77196   -60650.078    -49366.09   -34722.343    654.57965    1533959.3    253.30814 
  275200    315.21329   -60086.425    -48567.04   -32028.608    739.27258    1533959.3    275.81875 
  275300    317.58567   -59370.707   -47764.624   -28067.849    880.45142    1533959.3    267.92259 
  275400    316.03779   -58491.696    -46942.18   -23778.439    1035.4257    1533959.3    267.86612 
  275500    333.43843   -58782.941   -46597.523   -24619.652    982.41707    1533959.3    285.55583 
  275600    331.15437   -58398.511   -46296.563   -23023.663    1040.3052    1533959.3    284.98889 
  275700    333.82658   -58927.196   -46727.593   -25016.409    970.49608    1533959.3    284.86134 
  275800     331.4126   -59679.594    -47568.21   -29354.367    814.16394    1533959.3    286.62735 
  275900    329.89884   -60380.898   -48324.834   -32711.191    697.93427    1533959.3    289.15944 
  276000    327.14647   -60883.599   -48928.119   -36226.096    567.78404    1533959.3     288.5803 
  276100    328.04264   -61442.447   -49454.217   -38296.307    498.76172    1533959.3    257.98861 
  276200    311.33214   -61103.902   -49726.352   -37882.996    529.40136    1533959.3    296.48702 
  276300    327.35643   -61488.739   -49525.586   -39235.635     459.9637    1533959.3    291.77909 
  276400    311.51119   -60425.276   -49041.183    -34478.07    650.97526    1533959.3    287.11532 
  276500    313.52259   -59804.813   -48347.214   -30851.318    782.07154    1533959.3    290.70625 
  276600    316.10932   -59121.937   -47569.807   -27669.879    889.53242    1533959.3       281.32 
  276700    319.04096   -58478.855   -46819.589   -25075.293    971.97616    1533959.3    282.95193 
  276800    323.50614   -58160.346   -46337.901   -23298.021    1029.8892    1533959.3     284.2904 
  276900    323.55489   -57968.771   -46144.545   -22287.851     1066.401    1533959.3    282.17736 
  277000    335.71655   -59075.029   -46806.358    -26509.75    907.26413    1533959.3    280.22424 
  277100    328.10054   -59542.807   -47552.461    -29774.99    794.65798    1533959.3    238.81165 
  277200    326.37674   -60148.941   -48221.591    -33119.37    675.07355    1533959.3    246.35337 
  277300    322.96448   -60524.739   -48722.089   -34725.774    625.63924    1533959.3    278.70907 
  277400     326.5428   -61149.211   -49215.792   -37543.471    521.75605    1533959.3    288.27684 
  277500    332.26332   -61978.198   -49835.724   -42408.341    332.00613    1533959.3    291.18173 
  277600    328.18504    -62392.45   -50399.016   -44519.467    262.81752    1533959.3    295.09505 
  277700    323.32728   -62584.704   -50768.796   -44988.734    258.37042    1533959.3    298.23574 
  277800    323.47146   -62870.035   -51048.858   -46707.321    194.06791    1533959.3    296.30877 
  277900    326.00988   -63271.661   -51357.717   -48824.957    113.21511    1533959.3    296.38059 
  278000    328.72891    -63695.63    -51682.32    -50509.37    52.431215    1533959.3    294.83472 
  278100    326.78644   -63884.255   -51941.933   -51442.471    22.326074    1533959.3    209.29431 
  278200    323.73818   -64143.123   -52312.198   -52703.895    -17.50894    1533959.3     283.5175 
  278300    325.52814   -64457.724   -52561.386   -54490.995   -86.254043    1533959.3    294.01649 
  278400    311.45167     -64064.8   -52682.882    -52868.09   -8.2788475    1533959.3    300.60985 
  278500    309.37858   -63475.386   -52169.229   -50670.416    66.997353    1533959.3    292.09445 
  278600    304.84283   -62592.111   -51451.712   -46164.368    236.34576    1533959.3    282.22046 
  278700     307.2363   -61911.459   -50683.591   -42193.476    379.51054    1533959.3    279.44906 
  278800    312.58415    -61381.38   -49958.076   -39399.245    471.98274    1533959.3    260.11784 
  278900    317.19914   -60875.022   -49283.065   -36531.651     569.9918    1533959.3    260.13559 
  279000    308.45331   -59605.123   -48332.779   -31290.891    761.77723    1533959.3    266.27763 
  279100     312.3966   -58980.935   -47564.485   -27747.451    885.82706    1533959.3    280.46934 
  279200    317.95325   -58552.254   -46932.738   -25867.166    941.63707    1533959.3    268.98789 
  279300    337.33825   -59014.044   -46686.109   -27571.997    854.40618    1533959.3    293.72885 
  279400    339.73417   -58947.092   -46531.598   -26444.531    897.89758    1533959.3    293.42308 
  279500    333.66085   -59344.363   -47150.817   -28622.648    828.21439    1533959.3    289.77435 
  279600    330.51089   -59964.156   -47885.725   -32024.133    709.01764    1533959.3    291.65573 
  279700    324.13298   -60334.605   -48489.252   -34477.379     626.3347    1533959.3    287.01728 
  279800    322.71811    -60851.47   -49057.824   -36328.115    569.02159    1533959.3    288.17463 
  279900    328.92458   -61678.882   -49658.422   -40711.552    399.92759    1533959.3    285.01232 
  280000    326.07686   -62065.371    -50148.98   -42124.409    358.70058    1533959.3    278.99142 
  280100    321.98433   -62345.339   -50578.509   -44898.057    253.91782    1533959.3    278.97101 
  280200    323.22873   -62729.876   -50917.569   -46271.666    207.67316    1533959.3     268.9365 
  280300    308.44114   -62188.102   -50916.203   -43676.527    323.61556    1533959.3    267.89983 
  280400    306.35298   -61375.009   -50179.422   -40393.502    437.43338    1533959.3    290.95974 
  280500    311.83834   -60839.212   -49443.163   -37042.389     554.3181    1533959.3    290.92786 
  280600    310.71977   -59905.526   -48550.355   -32865.659    701.11034    1533959.3    261.52402 
  280700    315.71983   -59331.994   -47794.098   -29287.188     827.2641    1533959.3    294.28983 
  280800    312.68636   -58347.834   -46920.795    -24849.36    986.59936    1533959.3    289.22046 
  280900    319.51731   -58009.533   -46332.859   -23411.837    1024.5762    1533959.3    289.05423 
  281000     337.3659   -58550.844   -46221.898   -24383.777    976.17021    1533959.3    286.38761 
  281100    334.30767   -58845.216   -46628.032   -25747.904    933.34762    1533959.3    269.34355 
  281200    330.82578   -59519.182   -47429.243    -30206.39    769.86639    1533959.3    284.23954 
  281300     326.6191   -60019.292   -48083.085   -32801.786    683.07839    1533959.3    294.71394 
  281400    326.15478   -60589.104   -48669.865   -35243.171    600.17705    1533959.3    287.59016 
  281500    321.40711    -60860.91   -49115.174   -37364.428    525.26167    1533959.3    290.88892 
  281600    321.55225   -61279.506   -49528.466   -39301.716    457.13859    1533959.3    290.07455 
  281700    324.00557   -61675.316    -49834.62   -40950.099    397.14058    1533959.3    291.00638 
  281800    324.35717   -61947.737   -50094.191   -42443.363    341.99418    1533959.3     295.0662 
  281900    327.62106   -62477.319   -50504.496   -45278.747    233.59242    1533959.3     294.9975 
  282000    328.81319   -63057.055   -51040.665    -47544.31    156.28809    1533959.3    292.29333 
  282100    322.80847   -63293.761   -51496.812   -48945.481    114.04519    1533959.3    207.00591 
  282200    325.12102   -63736.458   -51854.998   -51133.004    32.273309    1533959.3     273.8878 
  282300    330.41726   -64238.473   -52163.463   -53616.878   -64.968036    1533959.3    258.17441 
  282400    332.39052   -64660.622     -52513.5   -54381.808   -83.513891    1533959.3    273.30332 
  282500    325.65823   -64846.828   -52945.736   -56107.754    -141.3431    1533959.3    283.74344 
  282600    323.06566   -65092.759   -53286.411   -57672.756   -196.07085    1533959.3    294.41377 
  282700    324.31381   -65400.119   -53548.158   -59295.546   -256.90988    1533959.3    292.41743 
  282800    327.97795     -65787.3   -53801.434   -60546.476   -301.50526    1533959.3    274.98962 
  282900    332.98876   -66212.047   -54043.062   -62469.094   -376.64599    1533959.3    275.01541 
  283000     323.7279   -66302.237   -54471.688   -63190.693   -389.74199    1533959.3    292.12863 
  283100    323.07169   -66546.486   -54739.918   -64369.731   -430.45537    1533959.3    249.29873 
  283200    321.78102   -66712.177   -54952.776   -65361.053   -465.25291    1533959.3    316.88607 
  283300    315.55911   -66593.247   -55061.225   -64960.617   -442.50565    1533959.3    278.47777 
  283400    329.09593    -66882.88   -54856.157   -65622.299   -481.24956    1533959.3    312.93023 
  283500    326.63685   -67059.372   -55122.516       -66436   -505.71593    1533959.3    279.05769 
  283600    323.04161   -67209.995   -55404.527    -67315.04   -532.40333    1533959.3    256.72093 
  283700    324.66057   -67423.048   -55558.415    -68075.23   -559.50516    1533959.3    293.42719 
  283800    327.09554   -67655.869   -55702.251   -68925.787   -591.09584    1533959.3    293.37649 
  283900    323.33392    -67759.01   -55942.859   -69722.371    -615.9481    1533959.3    283.10644 
  284000    324.07835   -67896.458   -56053.102    -70362.67   -639.64175    1533959.3    289.83822 
  284100     327.4153   -68148.836   -56183.532   -70467.564   -638.50026    1533959.3    267.56572 
  284200    326.77754   -68306.495   -56364.497   -71729.574   -686.82328    1533959.3    285.27576 
  284300    326.47402   -68447.116   -56516.211   -72223.609   -702.12514    1533959.3    270.29665 
  284400    329.94811   -68714.682   -56656.817   -74093.685   -779.43295    1533959.3    248.84037 
  284500    332.43566   -68930.257   -56781.485   -74539.674   -793.79609    1533959.3    269.40878 
  284600    324.02114   -68895.097   -57053.831   -74789.233   -792.77746    1533959.3    273.44675 
  284700    324.49239    -69051.61   -57193.123   -75675.419   -826.16387    1533959.3    252.61657 
  284800    321.56062   -69066.455   -57315.109   -75829.122   -827.58161    1533959.3       237.44 
  284900    305.91925   -68473.066   -57293.329   -73924.697   -743.42686    1533959.3    284.70877 
  285000    299.22088   -67865.042   -56930.095     -70642.9   -612.96626    1533959.3    277.68517 
  285100    302.48008   -67453.078   -56399.024   -68595.212   -545.17305    1533959.3    267.36037 
  285200    306.06501   -66998.834    -55813.77   -66394.515   -472.96229    1533959.3    290.53569 
  285300      304.849   -66355.218   -55214.593   -62460.105   -323.87646    1533959.3     250.8321 
  285400    313.35681   -66008.677   -54557.137   -60607.229   -270.44082    1533959.3    259.49954 
  285500    317.28716   -65607.767   -54012.593   -58326.149   -192.81715    1533959.3    288.01435 
  285600    314.78482   -64948.032   -53444.306   -54451.191    -45.00805    1533959.3    285.17238 
  285700    319.87575    -64536.33   -52846.556   -53017.573   -7.6444713    1533959.3    296.34729 
  285800    317.37849   -63931.671   -52333.159    -50088.31     100.3454    1533959.3    280.87127 
  285900    315.95053   -63283.193   -51736.866   -46633.381    228.12723    1533959.3    285.13826 
  286000    316.05426    -62622.72   -51072.602   -44039.749    314.37049    1533959.3    282.56821 
  286100    317.82932   -62088.941   -50473.954     -40595.8     441.5563    1533959.3    264.94898 
  286200    315.97269   -61389.726   -49842.589   -37548.731     549.5389    1533959.3    297.84966 
  286300    310.77879   -60311.991   -48954.664   -32702.574    726.47301    1533959.3    296.55284 
  286400    318.51113   -59879.867   -48239.963   -30478.825    793.92789    1533959.3    298.79025 
  286500    318.48278   -59087.671   -47448.803   -26718.842    926.63514    1533959.3    294.78437 
  286600    320.84197   -58593.862   -46868.778   -23779.341    1032.1044    1533959.3    251.99642 
  286700    326.36468   -58326.668   -46399.758   -23308.478    1032.1868    1533959.3    286.57643 
  286800    335.08363   -58504.214   -46258.673     -24230.7    984.65662    1533959.3    284.96604 
  286900    337.53097   -59274.767   -46939.789   -28044.013    844.64651    1533959.3    288.17206 
  287000    333.08729    -59971.72   -47799.135   -31162.512    743.66174    1533959.3    272.38305 
  287100    328.80542   -60494.739   -48478.633   -34084.372    643.42755    1533959.3    265.21603 
  287200    326.71545   -61035.953   -49096.224   -37118.055    535.42756    1533959.3    270.91312 
  287300    326.77183   -61701.529    -49759.74   -40592.945    409.75836    1533959.3    299.14955 
  287400    325.06074    -62230.37   -50351.113   -43575.534     302.8703    1533959.3    287.77899 
  287500    326.94728   -62870.383   -50922.182   -46459.146    199.49899    1533959.3    295.26747 
  287600    322.64193   -63134.099   -51343.237    -47556.14    169.28431    1533959.3    299.40837 
  287700    321.13595   -63414.606   -51678.779   -49596.999    93.056176    1533959.3    293.92213 
  287800    310.51678   -63215.709   -51867.957   -48031.358    171.49705    1533959.3    295.17521 
  287900    324.35935   -63893.253   -52039.628   -51031.781    45.051058    1533959.3    298.64728 
  288000    327.41387   -64468.542    -52503.29   -53979.775   -65.999305    1533959.3    294.20953 
  288100    326.05708    -64818.32   -52902.652   -55358.988   -109.79891    1533959.3    254.81597 
  288200    322.79505   -65024.666   -53228.207   -56974.964   -167.48108    1533959.3    291.58679 
  288300    305.39444   -64566.695   -53406.137   -55416.342   -89.856716    1533959.3    282.16711 
  288400    310.30685   -64276.449   -52936.369   -53344.826   -18.258161    1533959.3     291.5495 
  288500    310.77087   -63692.986   -52335.948   -49915.365    108.20072    1533959.3    295.76593 
  288600    307.78641   -62899.031   -51651.059    -46320.09     238.2958    1533959.3    289.84343 
  288700    308.38403   -62169.233   -50899.422   -42701.796     366.4362    1533959.3    288.78118 
  288800    318.77035   -61941.017    -50291.64   -40884.816     420.4877    1533959.3    276.00515 
  288900    315.47303   -61101.872   -49572.995   -37279.766    549.51079    1533959.3     282.3048 
  289000    313.26992   -60298.344   -48849.979    -33189.38    700.03319    1533959.3    277.14115 
  289100    314.02284   -59609.283   -48133.403   -30422.804    791.66877    1533959.3    256.66233 
  289200    317.34934   -59062.758   -47465.312   -27656.606    885.45475    1533959.3    286.55685 
  289300    316.63226   -58384.467   -46813.227   -24163.453    1012.4513    1533959.3    290.37679 
  289400    325.58813   -58330.697   -46432.166   -24320.345    988.40468    1533959.3    281.94026 
  289500    340.46071   -59027.412   -46585.367   -26014.703     919.5145    1533959.3    273.54769 
  289600     335.5651   -59589.121   -47325.985   -29139.476    812.94209    1533959.3    271.15411 
  289700    334.48235   -60355.337    -48131.77   -33624.361    648.48528    1533959.3    279.91679 
  289800    329.89617   -60867.386   -48811.419   -36232.783    562.26859    1533959.3    279.73123 
  289900    328.31914   -61467.104    -49468.77   -39063.276    465.12851    1533959.3    281.62204 
  290000    327.13917   -61997.979   -50042.766   -41928.827    362.69536    1533959.3    271.92233 
  290100    327.34725   -62537.121   -50574.304   -44928.944    252.34916    1533959.3    252.31689 
  290200    328.01496   -63033.343   -51046.124   -47075.371    177.49378    1533959.3    257.19966 
  290300    318.81371   -63054.415   -51403.454   -47651.889    167.69603    1533959.3    273.93055 
  290400    319.96331   -63284.268   -51591.295   -48602.688    133.59156    1533959.3    289.66528 
  290500    323.37824   -63663.438   -51845.667   -50384.542    65.312687    1533959.3    296.33494 
  290600    327.19696   -64197.918   -52240.593    -52798.79   -24.951572    1533959.3    297.52703 
  290700    318.96806   -64286.518   -52629.916    -53537.27   -40.558974    1533959.3    289.53191 
  290800    337.03738   -65334.222   -53017.282   -56984.713    -177.3453    1533959.3    296.86811 
  290900    329.79245   -65592.591   -53540.414   -59534.903   -267.95533    1533959.3    295.18809 
  291000    324.58575   -65819.061   -53957.162   -60643.339   -298.87402    1533959.3    293.60568 
  291100    324.69001   -66136.543   -54270.834   -62747.479   -378.90839    1533959.3    198.69103 
  291200     321.8763   -66292.189   -54529.307   -63339.856   -393.83404    1533959.3    251.47486 
  291300    326.35415   -66684.599   -54758.075   -64823.716   -449.93704    1533959.3    275.82093 
  291400    327.16318   -66988.389   -55032.299   -65787.918   -480.77925    1533959.3     272.6809 
  291500    325.86283    -67233.98   -55325.411   -67427.501   -540.96685    1533959.3    288.93814 
  291600    325.46906   -67514.413   -55620.233    -68430.63   -572.62836    1533959.3    279.09872 
  291700     322.6825   -67676.616   -55884.271   -69178.227    -594.2436    1533959.3    289.19214 
  291800    323.21351    -67878.65     -56066.9   -70477.802    -644.1714    1533959.3    307.46242 
  291900    331.30045   -68261.584   -56154.298   -71574.073   -689.26829    1533959.3    296.32615 
  292000    331.33686   -68525.719   -56417.102   -72743.827   -729.80921    1533959.3    277.05346 
  292100    328.84073   -68748.564   -56731.168   -74218.608   -781.69353    1533959.3    233.31073 
  292200    323.47433   -68846.509   -57025.226   -74728.353   -791.33476    1533959.3     231.9766 
  292300    320.02271   -68939.901   -57244.757   -75508.568    -816.3975    1533959.3    294.83223 
  292400    314.62749   -68885.657    -57387.68   -75350.606   -802.94788    1533959.3    278.66408 
  292500    306.41724   -68527.333   -57329.398    -74347.41   -760.70997    1533959.3    288.41718 
  292600    314.19466   -68385.623   -56903.464   -73253.737   -730.86183    1533959.3    292.07818 
  292700    312.36155   -67964.515   -56549.346   -70669.652    -631.1817    1533959.3    287.31927 
  292800     309.7973   -67443.134   -56121.675   -68224.818   -541.01394    1533959.3    295.94102 
  292900    312.60452   -67041.254   -55617.205   -66026.972   -465.31951    1533959.3    262.91582 
  293000    313.75632   -66576.993   -55110.853    -63843.16   -390.33662    1533959.3    257.08001 
  293100    314.30567   -66095.619   -54609.403    -60638.64   -269.50861    1533959.3    255.38865 
  293200    314.68639   -65551.399   -54051.269   -58156.405   -183.50076    1533959.3    283.55928 
  293300    319.98454   -65219.141   -53525.393    -56380.14   -127.60801    1533959.3     297.0363 
  293400    320.37126   -64779.977   -53072.095   -53584.966   -22.925475    1533959.3    285.10415 
  293500    324.30182   -64536.858   -52685.335   -52081.399    26.996085    1533959.3    283.09937 
  293600    318.14719   -63859.169   -52232.565   -49227.619    134.32192    1533959.3    284.33897 
  293700    309.51338   -62906.915   -51595.832   -45750.072    261.30711    1533959.3    280.80263 
  293800    314.12656    -62380.12    -50900.45   -42805.822    361.83214    1533959.3    271.27758 
  293900    314.72232   -61679.981   -50178.538   -39261.928    487.97556    1533959.3    260.39496 
  294000    316.34211   -61080.075   -49519.437   -36259.231    592.73498    1533959.3    275.71993 
  294100    320.28397   -60656.604   -48951.912   -33951.316    670.53088    1533959.3    247.44748 
  294200    318.73675   -59976.519   -48328.371   -30526.898    795.73088    1533959.3    287.88743 
  294300    331.21007   -60058.277   -47954.294   -31012.852    757.28727    1533959.3    288.69372 
  294400    317.62898   -58981.578   -47373.913   -26535.244    931.49437    1533959.3    283.18251 
  294500    318.82638   -58708.851   -47057.427   -24669.668    1000.7392    1533959.3    284.94184 
  294600    335.89003   -59246.645   -46971.634   -26895.557    897.40632    1533959.3    289.37271 
  294700    321.26813   -58653.827   -46913.169   -25541.127     955.3363    1533959.3    284.67882 
  294800    335.70839   -59970.094   -47701.721   -30187.206    782.90378    1533959.3    283.10644 
  294900    335.24979   -60739.719   -48488.105   -35397.407    585.15791    1533959.3     282.5427 
  295000    330.08759   -61212.358   -49149.396   -36898.067     547.6379    1533959.3    280.32238 
  295100    327.52774   -61745.239   -49775.826   -39959.164    438.80754    1533959.3    275.02064 
  295200    324.84733   -62214.984   -50343.526   -42980.924    329.11038    1533959.3    289.05662 
  295300    324.80511   -62722.123   -50852.207   -45315.346    247.49928    1533959.3    289.91736 
  295400    321.69083   -63023.088   -51266.983   -47076.119    187.33282    1533959.3    293.86014 
  295500     323.3389   -63445.823    -51629.49   -48771.329    127.76062    1533959.3    290.43591 
  295600    326.41702   -63867.651   -51938.828   -51255.421    30.548512    1533959.3    241.70233 
  295700    324.91813   -64183.188   -52309.142   -52306.036   0.13883663    1533959.3    300.11191 
  295800    333.19064   -64899.663     -52723.3   -55309.879   -115.62083    1533959.3    295.26228 
  295900    329.51249   -65204.543   -53162.597   -57635.548   -199.94218    1533959.3    290.65549 
  296000    327.37134   -65548.036   -53584.338   -59406.705   -260.26144    1533959.3    290.76953 
  296100    325.64055   -65817.305   -53916.858    -60609.89   -299.18043    1533959.3    282.49303 
  296200    326.14504   -66137.003    -54218.12   -61972.096   -346.60494    1533959.3    263.56494 
  296300     324.4597   -66336.799   -54479.506   -62569.077   -361.60612    1533959.3    248.61838 
  296400    323.34391   -66543.646    -54727.13    -64208.55   -423.82217    1533959.3    288.61108 
  296500    326.60786   -66885.999   -54950.203   -65813.152    -485.5769    1533959.3    292.33101 
  296600    323.83508   -67059.807   -55225.341   -66232.104   -492.00544    1533959.3    283.23625 
  296700    328.88937    -67442.93   -55423.756   -68652.735   -591.33911    1533959.3     274.8651 
  296800    327.10852    -67618.27   -55664.177   -69291.316   -609.13697    1533959.3    272.48621 
  296900    325.51491   -67804.335    -55908.48   -69827.919   -622.20283    1533959.3    272.39349 
  297000    322.10311   -67929.028   -56157.856    -70473.95   -639.93342    1533959.3    290.01137 
  297100     326.8909   -68267.095   -56320.955   -72273.141   -713.06723    1533959.3    281.47764 
  297200    328.82085   -68549.788   -56533.118   -73382.331   -753.16459    1533959.3    275.99298 
  297300    328.35609   -68755.674   -56755.989    -74195.06   -779.53141    1533959.3    276.01587 
  297400    323.52244   -68851.602   -57028.561   -75190.403   -811.83946    1533959.3    279.37795 
  297500    320.82867   -68986.617    -57262.02   -75674.406   -823.03887    1533959.3    284.63187 
  297600    321.01465   -69122.798   -57391.404   -75997.334   -831.69035    1533959.3    303.29968 
  297700    305.51561   -68532.511   -57367.525   -73743.838   -732.02582    1533959.3    303.17187 
  297800    304.17833   -68110.134   -56994.019   -71563.352   -651.25332    1533959.3     295.2708 
  297900     310.6596   -67881.379   -56528.408   -70073.988   -605.49128    1533959.3    296.32887 
  298000    312.44472   -67477.173   -56058.965   -67877.177   -528.27745    1533959.3    295.95522 
  298100     312.7848   -67009.453   -55578.817   -65376.459   -437.95737    1533959.3    219.80191 
  298200    310.48153   -66427.616   -55081.152   -62066.936   -312.26653    1533959.3    297.22995 
  298300    312.46861   -65954.577   -54535.496   -59880.084   -238.90463    1533959.3    280.81523 
  298400    310.08491   -65300.657   -53968.687   -57586.261   -161.70658    1533959.3    285.48994 
  298500    313.37416   -64846.055    -53393.88   -54384.031   -44.260009    1533959.3    294.91827 
  298600    316.91402   -64441.576   -52860.038   -52245.353    27.476608    1533959.3    281.34302 
  298700    316.40372   -63907.547   -52344.658    -49756.98    115.66993    1533959.3    276.63355 
  298800    312.58229   -63173.737   -51750.501   -46272.858    244.85218    1533959.3    277.22413 
  298900     313.0498   -62469.393   -51029.072   -42994.278    359.15755    1533959.3    275.58461 
  299000    313.84428   -61797.436   -50328.081   -39124.224    500.81556    1533959.3    287.31337 
  299100    320.51432   -61437.505   -49724.395   -37355.757    552.88165    1533959.3    264.78005 
  299200    316.92394   -60620.969   -49039.069   -33430.729    697.69722    1533959.3    288.89296 
  299300    315.86661   -59990.313   -48447.052   -30401.816    806.62717    1533959.3    281.01485 
  299400    317.58377   -59448.433    -47842.42   -27976.745     888.0013    1533959.3     272.5992 
  299500    317.05501   -58858.712   -47272.022   -25157.568    988.52236    1533959.3     279.4256 
  299600    319.01169   -58332.867   -46674.671   -22724.472    1070.5807    1533959.3    286.91597 
  299700    326.56188   -58216.475   -46282.359   -23018.249    1039.9123    1533959.3    286.97289 
  299800    334.51094   -58645.086   -46420.473   -24307.407    988.46032    1533959.3    285.18305 
  299900    337.49488   -59627.478   -47293.818    -29123.25    812.22956    1533959.3     290.7391 
  300000    333.42529   -60260.691   -48075.753   -32578.066    692.75099    1533959.3    262.25579 
Loop time of 1076.05 on 8 procs for 300000 steps with 12261 atoms

Pair  time (%) = 735.589 (68.36)
Bond  time (%) = 15.6931 (1.4584)
Neigh time (%) = 123.329 (11.4612)
Comm  time (%) = 158.705 (14.7488)
Outpt time (%) = 1.3925 (0.129408)
Other time (%) = 41.3425 (3.84206)

Nlocal:    1532.62 ave 1656 max 1406 min
Histogram: 2 2 0 0 0 0 0 0 1 3
Nghost:    3496.25 ave 3570 max 3401 min
Histogram: 2 0 1 0 1 0 0 0 0 4
Neighs:    69662 ave 79247 max 60764 min
Histogram: 2 2 0 0 0 0 0 1 1 2

Total # of neighbors = 557296
Ave neighs/atom = 45.4527
Ave special neighs/atom = 0.69978
Neighbor list builds = 30000
Dangerous builds = 29997
#       steps nevery T0 fixname seed1 seed2 EX_flag $w_list-of-walkers

